1000
Lattice="24.079964 24.079964 24.079964 0.0 0.0 0.0 0.0 0.0 0.0" Properties="Particle Type:S:1:Radius:R:1:Position:R:3:Velocity:R:3:Entropy:R:1" 
He	1.0	6.582341	2.291373	2.95067	-615.64026	-10.973796	4294.6636	74.32074
He	1.0	2.3362203	16.13079	10.337732	11788.572	-6541.3706	-585.8719	3.1625894e9
He	1.0	2.2978003	3.4230037	7.180784	3945.4158	1216.582	2934.5518	285757.66
He	1.0	1.051128	18.870579	19.531889	4015.0798	-695.6459	394.7984	79.407585
He	1.0	20.674675	10.56373	21.145882	-5461.4995	2105.9922	5644.3384	1.65197e9
He	1.0	4.497289	12.73811	21.7136	5540.4697	-21011.236	43550.195	6.870043e8
He	1.0	2.2224884	8.364732	14.23389	-4042.163	-1855.5522	4807.744	52312.035
He	1.0	16.56096	23.762793	7.3225408	-4360.218	3317.211	2959.5122	24.949923
He	1.0	7.521045	21.36226	22.092464	-1386.0233	2233.9998	1419.5814	54130.285
He	1.0	23.079302	1.2385081	16.519394	-1427.2999	-80173.74	32014.0	1.5856814e9
He	1.0	6.034455	16.55584	6.876906	-10524.752	9828.684	-1769.9604	9.6918074e8
He	1.0	18.347704	22.279142	11.309225	81531.35	-61919.188	96478.875	519328.0
He	1.0	16.6027	6.2929363	11.773835	3652.1846	-13700.864	1367.6556	145419.4
He	1.0	15.513068	5.8267345	10.170866	-3873.1223	-2722.1086	-16392.07	9.1009914e8
He	1.0	2.8437922	14.192802	11.0291195	-6464.04	-3338.4944	-2665.3718	458443.3
He	1.0	1.8800743	11.338422	1.9132937	-1282.687	18.493322	-4319.1807	2.7645662e7
He	1.0	8.293729	5.1762314	9.628297	7962.552	6035.3364	4085.0244	-167.01967
He	1.0	11.151469	2.8054478	21.381556	13386.778	2920.0322	-2717.5508	111750.99
He	1.0	23.277548	16.994875	15.782137	-1384.1251	-376.68683	-1316.233	557780.06
He	1.0	24.07954	10.35096	11.917089	5827.012	3286.2	-229.07562	49585.9
He	1.0	14.306667	4.4279184	9.370482	5170.1187	4818.456	-7104.894	-127.5714
He	1.0	9.052363	20.448746	3.1079621	-1373.8773	889.8258	1576.3541	537643.5
He	1.0	7.407571	20.18659	5.0911946	7255.2603	3540.1375	2701.0776	228972.22
He	1.0	17.770716	14.842926	20.59551	119592.61	94488.45	-54600.867	2.7772764e9
He	1.0	8.533092	3.3894336	11.91919	-5856.766	4128.1553	-2869.3374	-26.362724
He	1.0	0.56120944	9.633689	3.2582653	2015.1498	902.1204	4542.337	4.3107005e9
He	1.0	8.686912	20.430067	0.5785428	3828.3362	2098.679	-4809.594	81001.19
He	1.0	18.764952	17.553373	0.75956774	5001.73	5199.8403	5775.8325	2.476168e8
He	1.0	22.249737	22.787746	16.046658	-5063.917	-1717.5338	7729.6494	-488258.66
He	1.0	20.369215	13.504813	6.886603	5811.3696	19149.488	-8767.912	102190.8
He	1.0	20.566927	7.559516	10.910046	3358.0725	20340.662	43565.77	7.751244e8
He	1.0	21.165125	7.355259	18.787437	-1583.082	1136.0594	-9238.922	3.3679168e9
He	1.0	17.289598	13.618312	10.987594	4644.611	6160.834	2543.4817	177492.5
He	1.0	3.8283367	11.203621	1.4087591	-8656.514	-1519.572	-6852.7915	-931541.4
He	1.0	15.607769	18.667614	9.951619	-33662.27	-58974.918	42610.793	2.429289e9
He	1.0	12.263861	7.873847	14.614529	-8550.703	-4964.659	-11892.701	55695.176
He	1.0	9.039963	16.170656	4.423071	-4488.783	6185.0317	1242.5599	4.8191318e8
He	1.0	2.4430563	22.346457	3.0857449	1269.8157	1419.0039	-2641.1877	299362.1
He	1.0	4.8838153	18.332838	22.720867	-714.51025	-2117.405	-40.294773	271337.88
He	1.0	14.359333	4.8700614	14.03503	-29205.674	464.61255	7902.611	3.472654e9
He	1.0	15.843643	4.1998005	22.19829	-3513.6045	-3323.2087	3296.7085	179262.22
He	1.0	15.503891	21.553654	18.593206	-19827.922	72640.16	-8915.652	37767.957
He	1.0	18.460918	21.239798	14.959653	60410.43	-11410.397	-14928.268	442123.38
He	1.0	11.543159	7.744579	8.086289	-42.568222	-1680.112	-1142.5698	552525.5
He	1.0	13.117182	23.558136	22.242529	479.74957	-1368.1146	-1563.5542	2.897417e8
He	1.0	15.686602	18.113916	5.7597885	-357.9645	296.85233	3181.5498	536819.6
He	1.0	6.6914854	23.63948	17.012697	188.21292	2718.3184	-2214.1594	1.1964492e9
He	1.0	8.600891	22.685272	11.777687	-11057.361	-103346.555	86705.56	2.5961654e9
He	1.0	21.918074	19.055162	7.6769357	-3330.9004	3311.1719	-1928.2714	281968.03
He	1.0	14.743916	6.1431403	23.009747	3195.4998	-548.5065	8641.478	833524.44
He	1.0	17.336538	8.629006	17.896378	476.43182	-3956.47	-3684.3289	238897.95
He	1.0	11.705126	15.980805	3.8179123	3680.6921	1518.4462	-4011.5117	207291.27
He	1.0	12.378786	19.921696	8.515865	-1102.5238	-1213.6444	-517.0486	564923.94
He	1.0	4.1472	1.8640457	3.7423055	-72970.31	79388.445	-23593.3	1.0971041e6
He	1.0	6.431008	7.6311207	17.9067	-115.9719	-939.52905	838.0104	356504.53
He	1.0	5.7544293	3.1397955	0.79578733	5691.9443	-38724.453	-49597.63	4.1103693e9
He	1.0	14.904898	4.838969	6.223358	5790.934	2214.5408	5224.516	-41.67263
He	1.0	15.509588	21.882456	12.665589	-12654.316	-17353.795	-19089.621	9.325047e8
He	1.0	18.071863	5.172221	9.641617	-1079.5426	1648.6622	4194.032	340092.4
He	1.0	23.596487	18.75881	21.820513	896.2583	5423.3345	-1961.4218	2.1626396e9
He	1.0	13.370489	19.271885	4.317391	2370.5525	5477.7915	-869.42487	155328.45
He	1.0	3.2708986	21.049614	1.8087505	-24033.453	-93653.75	86260.414	4.5407e9
He	1.0	21.952095	0.0036525398	1.8445749	1394.6998	4802.4688	-4722.076	18266.598
He	1.0	12.080608	10.230831	16.402927	22311.807	-26164.111	-1701.6417	409680.88
He	1.0	17.613123	22.989014	16.317797	5454.747	7163.3306	321.33575	-80.30516
He	1.0	5.5538087	9.746061	23.923622	-23647.146	-17480.809	25289.447	165723.38
He	1.0	18.46877	10.04369	3.4686003	-2597.47	-2310.6433	-3923.1318	306622.4
He	1.0	22.430351	14.285484	17.394333	-1446.6172	10819.777	6978.559	-294.10028
He	1.0	3.3351636	16.610493	5.9771748	-1601.2308	-365.89673	3079.016	1205.7034
He	1.0	10.788284	17.994122	3.2835374	120.414635	2522.4785	-9411.34	381857.5
He	1.0	16.801647	20.387838	0.77792543	-4104.4067	3278.8516	-1353.0571	47.84841
He	1.0	4.184531	21.960356	9.502866	3566.3176	1476.9908	-3512.5227	53.064007
He	1.0	22.626144	6.1476007	2.2161286	688.7147	2249.7634	4229.0537	461649.72
He	1.0	22.902157	5.0260983	6.8318357	-17157.664	-3961.2954	4570.2686	95515.52
He	1.0	6.625123	7.987909	8.122338	-1667.0419	-730.45593	6238.6094	82929.85
He	1.0	13.97232	17.846148	11.395712	3278.3403	1231.132	-320.5827	1.02660616e8
He	1.0	2.3455892	19.481424	6.936297	-5179.8647	2048.388	3664.8794	65586.49
He	1.0	2.4825132	23.415194	17.165152	-935.7103	36303.336	15541.737	103427.95
He	1.0	23.824606	21.082075	10.656793	9531.379	-10248.336	-22295.008	9.052901e8
He	1.0	4.57802	24.078737	10.696978	-7242.6816	910.3599	2912.9443	51150.867
He	1.0	9.802043	5.1905847	12.69489	717.8799	-1534.8656	-12336.306	99651.06
He	1.0	23.099913	1.511672	21.371996	-1200.177	-8481.902	-369.26126	-304654.38
He	1.0	13.568049	21.250319	7.00091	-1523.296	-9886.792	1898.4728	-135.34305
He	1.0	2.2354882	3.0750716	21.088514	-4934.285	-4320.443	120.06605	69398.01
He	1.0	17.52207	19.10554	21.636599	895.3892	-3301.997	-2496.04	430530.34
He	1.0	4.394965	8.659735	8.837543	-3.1922	3082.247	1323.0237	93.14081
He	1.0	16.769073	22.900446	1.5411451	-4727.729	-7455.5864	9133.832	1.8872052e7
He	1.0	10.0174675	4.333693	17.650417	-3267.1602	-4443.835	4084.6858	497536.78
He	1.0	18.654997	7.16806	5.624485	-42098.848	-9284.453	21584.848	1.5977838e6
He	1.0	15.04323	1.7732297	18.969078	-7601.4595	35187.28	-4806.347	1.2394022e6
He	1.0	16.270184	10.098866	16.288248	2011.0891	-5160.2524	-629.84766	218621.67
He	1.0	0.9995176	4.5513597	14.820587	-8383.81	-14340.03	1318.6156	2.3788626e9
He	1.0	4.2090864	22.953024	3.8062296	-652.214	1785.1259	-3377.1262	1.4853421e9
He	1.0	20.129559	20.79246	6.7229924	-563.6777	-4356.105	-2025.1729	62.958527
He	1.0	23.747381	12.852676	23.514961	5716.7905	-5147.9536	14083.087	1.9501866e8
He	1.0	9.178431	14.810174	7.816968	3004.7065	344.2353	-11332.064	188621.64
He	1.0	22.029259	4.451294	10.223008	23070.322	-11140.973	-30885.746	690597.8
He	1.0	11.732672	23.999529	15.966423	2735.808	-5686.1113	-4047.3367	-17.67937
He	1.0	9.319802	22.057144	22.617315	-7880.5396	2973.0283	226.22586	6.9421957e9
He	1.0	5.494244	3.787881	15.693005	-3940.4866	-2100.0662	-1752.4486	318619.38
He	1.0	18.103365	23.284273	18.31252	91.59761	403.2083	-2785.258	101.20788
He	1.0	6.707799	14.838502	9.090204	-34906.742	51107.727	22303.797	399983.2
He	1.0	19.766842	10.794455	10.274208	283.7049	-1291.243	18038.875	1.2419974e9
He	1.0	11.265283	23.291422	12.072637	-6080.4326	8470.502	-2007.1013	846560.5
He	1.0	16.61997	19.586905	4.7392354	-3654.704	84644.08	29102.674	4.5267315e8
He	1.0	1.62098	14.834299	13.59893	-1852.4973	625.3395	895.5167	3.8765652e9
He	1.0	12.608269	2.9786184	18.472296	-1257.1826	2936.3665	1649.6104	88.855576
He	1.0	10.812267	0.11910036	22.622643	1004.81714	5050.624	-3531.6777	121364.08
He	1.0	20.951086	14.508496	10.362555	2968.8706	-10144.888	1891.121	2.2329896e8
He	1.0	4.803084	0.019788232	7.136609	2482.0618	412.15903	428.77835	1.4146851e8
He	1.0	5.5349336	8.194432	5.660158	4177.613	3978.7952	-14745.045	569750.2
He	1.0	20.20283	2.7775233	1.1251414	-6219.3716	-6333.3394	2895.7544	1.7198396e9
He	1.0	9.052059	13.167341	20.336588	5555.835	-80121.09	24326.465	5.6494147e9
He	1.0	9.278866	10.082668	20.96896	-245.44437	-1517.4691	-383.19162	283788.0
He	1.0	11.538554	20.307755	15.9831	390.51617	7387.157	5288.1045	-418278.97
He	1.0	8.523941	0.38282377	0.19382064	-3745.4998	428.3361	3950.2449	233979.62
He	1.0	1.6023539	2.0762424	19.036867	3074.2673	-5594.3916	2050.9397	48242.473
He	1.0	8.131349	11.175586	7.462121	2904.8403	-4946.8457	8949.961	49977.145
He	1.0	7.9530487	6.882113	5.944832	1938.6173	-2259.039	3684.3398	26153.217
He	1.0	18.94524	17.225233	16.125366	37092.684	-13663.24	-2249.4285	503982.6
He	1.0	1.7356818	23.735153	10.647071	-3450.4727	2344.5105	2904.5686	285589.4
He	1.0	12.264112	2.0165548	11.872562	-2843.0398	-5076.439	4952.55	52769.0
He	1.0	17.28493	22.750431	12.92553	14369.319	12467.958	8042.083	2.288293e9
He	1.0	21.950535	21.177395	23.025772	-2198.7556	3416.5176	-3019.5266	56.518143
He	1.0	19.952383	4.5301766	17.394602	845.4798	4863.659	5466.6646	-66049.76
He	1.0	9.16073	2.744705	21.532963	-8439.194	-4399.8247	-630.24365	131771.42
He	1.0	1.1539145	1.8442694	1.0466968	-2454.1711	-730.536	4690.5225	993280.75
He	1.0	4.693766	21.257643	12.048047	-2985.7114	-3134.6548	-6602.738	2.71357e8
He	1.0	19.436586	0.38663355	15.936035	-3733.289	6499.5063	917.6125	-100797.37
He	1.0	3.1445224	4.5308743	13.128048	1077.7916	-2522.8818	7806.467	184935.02
He	1.0	20.31396	18.92961	10.667386	623.81604	-3921.6335	11034.28	-1.095274e6
He	1.0	8.962659	4.044011	14.10031	72.03099	2627.6475	2470.7583	102746.06
He	1.0	8.732058	11.365487	0.41551888	-1609.8834	-3922.4377	657.7103	479030.03
He	1.0	1.3866497	14.840938	18.609625	9814.719	-1657.0004	1882.9917	7.963423e8
He	1.0	4.6968865	17.88015	15.197296	4897.025	10942.029	3953.9292	-1.3659254e6
He	1.0	14.527054	12.974167	10.553726	-1010.05194	-508.3828	4399.117	5.469322e9
He	1.0	15.004472	17.268719	1.9099793	1405.5774	-1940.4541	-625.5341	4.3953516e9
He	1.0	2.2324257	6.9886255	10.253877	1121.4958	4032.271	2624.5571	90030.84
He	1.0	23.48313	2.9384859	19.0124	6669.2114	-743.06006	-2596.2434	1.1235955e9
He	1.0	22.81499	1.7615634	0.9183475	2272.1023	5204.5317	-507.8043	200627.23
He	1.0	19.385323	3.3077865	8.50097	-123.42465	908.4023	-7110.99	-32292.625
He	1.0	6.9737773	14.1732025	23.165161	-10410.746	1298.7571	-219.92422	-758237.8
He	1.0	13.439476	0.262079	19.964924	-56756.9	10995.646	20637.516	1.6863478e6
He	1.0	10.391426	12.365112	2.2272375	1305.6675	-3134.5657	5476.88	1.9200814e9
He	1.0	21.772297	17.779707	18.602179	99.863495	1569.7849	-4758.192	108776.266
He	1.0	3.2302716	7.8651896	3.8365576	14086.819	-2489.139	11226.298	4.8653725e8
He	1.0	15.683353	14.718734	6.232224	-1180.741	1240.855	-1305.6196	310849.44
He	1.0	19.450686	3.4061513	10.618308	-1844.8799	2125.5718	3991.833	61.924164
He	1.0	17.366701	14.325852	4.7416463	-10664.279	-187.4951	-7204.0835	2.2705206e8
He	1.0	13.363652	18.909294	21.162203	5151.864	863.08856	2839.6208	2.1928637e9
He	1.0	18.722336	10.119701	13.103174	-8164.1333	-700.14636	-538.48944	-45.74741
He	1.0	9.726711	12.392682	6.6791244	4056.34	2941.8875	882.58014	3.948541e9
He	1.0	14.053579	16.227571	4.2845645	-1639.5027	-4647.9097	-6403.9346	-204652.31
He	1.0	7.8431993	1.1728346	17.281164	-3676.8772	4781.305	3387.401	1.1080047e9
He	1.0	5.8717995	12.352962	12.48972	-8650.168	-9145.47	4096.0254	582788.4
He	1.0	22.953114	0.63544065	14.507145	28426.95	79041.555	33481.934	208814.61
He	1.0	10.532923	22.005732	9.699607	6363.2046	208.9602	1373.6835	79458.9
He	1.0	8.114712	18.648798	20.660515	4520.966	302.70062	561.12335	69.181984
He	1.0	12.69847	9.187078	18.181763	-8208.872	17477.57	-4529.116	26096.059
He	1.0	4.245434	6.587501	9.665515	-84376.016	9216.684	-26043.193	2.7474848e8
He	1.0	22.188879	15.404384	19.347158	-1845.3348	7158.9263	5576.427	-90.932724
He	1.0	17.906488	11.4527	8.885873	-8674.893	-2979.4458	-5316.0317	1.6561988e9
He	1.0	7.797339	9.9391	18.012238	-759.7716	-2678.4294	-4896.0425	210365.9
He	1.0	4.2334375	2.2664523	7.1784453	7295.613	-2744.9417	6677.9673	-139.54395
He	1.0	14.564201	6.692939	8.4216175	-2174.591	-961.0329	4502.55	283560.28
He	1.0	2.801193	4.664306	8.947106	3115.5132	30171.688	-23353.06	2.655541e7
He	1.0	0.88218737	7.718823	4.86397	2817.9165	-3231.2363	-3735.44	3056.587
He	1.0	11.305409	13.24245	12.550949	6710.044	-7532.573	703.5063	-658379.3
He	1.0	22.195347	20.100277	15.143993	-9148.171	1402.2648	-4898.0366	-150.30774
He	1.0	9.661309	14.477832	16.31036	-4919.981	-1139.3558	-4031.3054	87038.21
He	1.0	4.3240805	14.228275	9.327147	625.40454	2176.123	1847.8269	99.678764
He	1.0	10.845705	17.877033	0.9155308	-10030.04	-305.69147	-11093.341	459157.1
He	1.0	14.241235	22.43785	20.851791	10517.992	11760.418	615.44794	1.943672e9
He	1.0	10.188751	22.32416	13.537044	2515.6187	1283.0745	75.545296	100.95432
He	1.0	20.962349	16.127747	22.59224	-3980.1716	-2812.4614	-2607.5344	30364.021
He	1.0	9.915341	19.084381	4.776823	217.49521	7100.274	-176.65605	-21243.602
He	1.0	22.598886	3.2905767	22.917868	-5711.6533	2066.6519	216.75958	5.883256e9
He	1.0	13.295297	13.680224	12.542672	738.6655	5535.939	-4774.1455	-62664.832
He	1.0	12.794421	18.151999	1.2497997	19787.545	5417.584	8017.628	162255.36
He	1.0	9.469693	16.124971	15.091042	5048.189	2940.5674	-6396.083	-323600.06
He	1.0	13.416388	4.282179	4.7940373	-7797.9263	-2249.0425	-3860.3835	1.6757968e8
He	1.0	13.105307	14.277191	3.9848301	514.74536	-2106.9805	5432.2896	179176.36
He	1.0	20.995556	9.63612	18.15122	-776.15234	4610.0723	-809.66187	42212.08
He	1.0	4.567822	7.996029	19.324398	-865.2347	4649.7617	4245.652	104343.44
He	1.0	22.671339	8.089035	5.1085143	-810.4568	4034.328	-4980.603	25383.645
He	1.0	17.62099	3.7252243	14.181583	-2942.0464	2044.1106	-2385.025	375417.66
He	1.0	3.9796543	1.8877559	18.315895	8945.727	-10376.472	4240.274	10425.526
He	1.0	9.516303	20.689812	11.132019	-3270.96	-1278.999	595.35095	89.4299
He	1.0	0.20277938	15.372385	16.8938	-30.957228	2646.7075	-72.02876	103.32727
He	1.0	21.995956	9.694155	6.1217513	-1174.7911	-2397.4766	-5081.332	1.9589231e9
He	1.0	1.742728	14.356665	20.896698	3894.8042	-4104.3184	616.36707	6944.552
He	1.0	2.4350278	18.037832	9.55857	5219.9614	7433.7817	-7309.77	944905.94
He	1.0	17.159409	1.7932619	7.429973	-3026.4924	-3548.6626	347.67767	78599.734
He	1.0	8.130101	16.6949	7.316713	11459.262	26962.436	6064.6724	406569.12
He	1.0	22.38966	9.975148	3.3512104	-437.33582	-4374.87	-6593.44	-172461.5
He	1.0	22.18512	15.385897	13.932458	5349.5835	-723.00867	2538.5469	32.795727
He	1.0	21.441435	13.633747	15.666069	2991.2666	-2413.3845	-1851.3058	378555.16
He	1.0	10.070595	12.41694	9.537545	2364.9133	5362.6777	5512.6694	-39.631775
He	1.0	16.869041	14.4343	0.15358052	4308.929	33.747246	-3892.808	186166.33
He	1.0	6.6894703	1.9666332	8.614821	-2051.8982	2717.245	-35.81407	250348.9
He	1.0	7.8007255	9.252775	10.308303	-5400.2715	1564.8553	2926.7368	107352.555
He	1.0	9.250703	16.880024	22.01187	6853.0645	2213.0315	4970.753	88886.766
He	1.0	10.542383	2.000821	3.2254534	2917.11	-4293.089	1641.6346	8.7699544e7
He	1.0	15.820737	17.318642	19.04135	3859.7224	7094.4585	2782.0356	-298748.06
He	1.0	20.50509	0.7163328	0.49271247	764.3411	-3169.1965	3079.5176	354551.66
He	1.0	4.602976	15.353422	7.584494	-3043.4307	-7296.104	-533.4842	1.2513787e9
He	1.0	13.69655	8.792331	9.536655	-9623.839	8255.576	-105187.2	3.6231862e9
He	1.0	6.907973	23.949017	12.270463	-312.56982	2429.7625	2144.7427	94.62262
He	1.0	3.3684514	0.9377877	15.87856	-2298.8647	5597.4644	-99.95942	151020.27
He	1.0	11.235795	1.214179	5.250259	1360.8738	-4953.625	4349.079	43918.68
He	1.0	2.070619	8.458786	16.230463	-2778.779	5147.06	8399.924	-691106.94
He	1.0	5.0078535	2.6530268	10.33753	6278.6406	-39861.395	-15063.147	1.9406949e9
He	1.0	17.429998	2.589705	12.433059	-4238.581	1020.11957	-7006.785	51.733063
He	1.0	10.594872	18.167023	14.643773	-5425.915	5607.854	4723.5405	2.7637983e9
He	1.0	0.6573308	22.785055	6.1864467	79776.266	62928.55	35956.938	4.6217175e9
He	1.0	4.1078234	0.060970366	1.3605521	-5475.073	-418.9645	-909.676	8.773091e8
He	1.0	9.471503	19.81075	15.830411	40434.61	21351.387	-6397.685	7.3744774e8
He	1.0	9.187343	13.484281	22.299543	3832.1814	9191.468	18452.809	1.2777518e9
He	1.0	1.6774195	18.551317	5.2976604	10460.109	-3601.3774	-4239.5674	63404.5
He	1.0	2.764072	11.348556	8.825819	22668.996	6680.4775	43623.156	701710.3
He	1.0	24.011375	14.563986	20.072521	1771.0819	1710.1519	-6118.995	4872.204
He	1.0	2.6479084	10.185763	15.051601	-19173.715	4920.5044	-9830.766	4.37657e9
He	1.0	13.157006	11.360383	6.403182	-6552.1978	-7041.042	1937.9469	3.6410906e8
He	1.0	14.703538	22.113125	1.3124992	1986.3931	1840.3293	-6311.8022	2.2315223e9
He	1.0	22.36235	5.635208	4.294585	3299.5247	-2463.096	1159.6335	379657.22
He	1.0	2.0647235	9.34942	21.654392	4034.2156	7260.9536	5777.668	113819.34
He	1.0	10.790595	9.078262	23.950745	3340.9915	-60915.97	-15872.652	1.3355557e9
He	1.0	12.51714	18.626944	10.269238	3028.9502	3747.3525	-4105.57	24977.443
He	1.0	15.686497	21.35558	6.2115707	3692.2712	5148.41	2521.0486	29507.686
He	1.0	0.3604466	9.660245	16.706118	7186.05	1430.1357	-1984.949	-107258.984
He	1.0	7.330457	2.9607575	10.227621	155.17708	-4803.564	669.3477	5793.767
He	1.0	3.5314596	3.5015273	17.224903	-978.8349	4802.985	-1473.4567	52110.004
He	1.0	21.280754	20.584208	9.500836	42743.92	-85934.75	-42324.793	9.183806e8
He	1.0	8.910964	7.583156	8.420631	-1951.6816	-93.40528	198.68526	554350.4
He	1.0	12.630459	20.045912	2.6065402	2779.0742	-3288.801	-3031.055	261202.98
He	1.0	5.9374843	7.838402	14.494991	-6041.942	4348.675	-3781.2822	-258443.78
He	1.0	7.876463	21.37077	19.204496	2503.635	-7767.5176	-2972.0117	-328635.28
He	1.0	17.522953	8.270717	23.82193	21736.754	50145.902	826.55194	277017.0
He	1.0	10.450781	5.257634	22.253168	-7238.721	2868.711	6413.1885	-130.94902
He	1.0	17.660408	4.851629	19.660454	-8554.93	-358.27933	2581.7395	1.1598915e9
He	1.0	6.020478	8.321258	12.543244	2819.4092	11085.2705	548.6071	-203.75938
He	1.0	6.7082777	0.3386126	22.7563	-2107.3157	-975.0164	-6213.641	11.993909
He	1.0	12.582473	15.082406	6.136403	3263.301	1885.6097	5802.821	7805.5312
He	1.0	19.217777	20.331923	21.267166	-1850.5879	-2019.3573	-3360.7185	74.046974
He	1.0	19.954498	6.5417566	15.467042	8398.94	-752.83	-214.9714	35916.508
He	1.0	24.02077	21.221558	7.32599	-1892.6057	-2088.8252	194.15665	20476.846
He	1.0	12.074652	3.4408772	10.461409	557.4692	-1569.548	3164.0752	89.40273
He	1.0	19.331078	0.051123302	19.938725	-2414.4207	-8129.5347	-173.6526	9.813317e6
He	1.0	5.3741074	18.25846	17.318594	-2029.1624	5424.246	-4173.8774	3.3172166e8
He	1.0	12.0429535	13.598379	7.448374	2725.5322	-3987.6018	4468.291	13.77554
He	1.0	21.43651	20.006754	21.386393	13615.965	-9252.519	82599.96	184838.47
He	1.0	8.747334	8.038604	12.490089	-83496.74	32739.932	1728.2516	412300.97
He	1.0	2.2330773	13.036219	15.854804	-1202.4008	3522.988	1246.4432	2.900948e6
He	1.0	5.5856924	17.481123	5.1623173	3142.145	1697.3909	-508.505	8.964744e8
He	1.0	21.054598	15.720588	7.5380836	2342.564	330.61905	-810.03455	104.8512
He	1.0	17.006668	6.7344513	18.814413	8074.345	578.61255	-2587.0774	-288139.12
He	1.0	4.27648	15.880663	1.67757	-278.20218	-5608.8047	5192.449	5.385268e8
He	1.0	7.921656	3.8258986	3.6288257	-331.20273	-1070.6609	-1172.9739	114.20138
He	1.0	10.956491	3.0287883	6.57593	-639.9954	29.607746	-3570.076	87.98921
He	1.0	19.502289	7.2558904	23.53481	-3074.0842	1116.9374	618.8593	93.47997
He	1.0	15.446176	14.687615	13.662502	4258.0728	-1557.2272	741.3695	3.1239585e9
He	1.0	9.782478	23.317923	3.54351	2329.1208	7854.6714	1237.3446	1.3925866e8
He	1.0	1.5062196	7.5825744	20.907206	5329.5977	-7344.761	86.67689	1.7807314e9
He	1.0	7.810267	6.793389	21.933249	762.8688	-136.86348	-246.5012	9.4017446e8
He	1.0	17.523169	10.845701	6.9238796	-6515.6953	-4813.1714	-1607.7374	-47.425133
He	1.0	22.7721	3.3039293	11.692057	-4256.919	-4154.176	-2171.3184	183174.06
He	1.0	14.451933	8.862912	13.542794	-14331.748	32354.262	-25778.762	7.655979e7
He	1.0	3.809303	10.238204	22.993862	2703.3699	-906.9119	7814.6675	-250894.56
He	1.0	20.487692	13.713663	13.214006	-7341.7217	5635.3975	-2277.0457	628914.25
He	1.0	5.1538196	3.421725	4.633659	-4878.6396	1067.2993	-3660.039	127784.43
He	1.0	16.607952	11.563334	18.756481	3592.3325	1328.7266	-2159.5117	72.593735
He	1.0	20.333055	14.81589	0.34852633	3829.7844	-71149.79	-62799.266	2.2243075e9
He	1.0	11.772234	4.7063413	12.303503	24286.133	35446.21	-24390.195	2.058505e9
He	1.0	12.063917	11.857105	14.777948	47109.08	7464.7705	-45748.035	7.9122765e9
He	1.0	0.18413527	13.281297	13.855483	5761.113	-1684.1351	-2807.5864	12.117723
He	1.0	0.5742256	23.668985	15.971815	1989.5492	1019.1534	-3464.3635	78.44446
He	1.0	11.793643	23.968508	3.3221643	4121.326	46.76266	1869.8914	357026.38
He	1.0	11.535184	10.682553	2.6693053	-2705.0208	-1543.9629	762.6529	5.287083e7
He	1.0	12.720515	9.922671	20.289808	-4766.2397	1734.3488	6032.07	-165256.11
He	1.0	19.152586	13.449148	2.2813263	1141.5428	1608.5647	-5741.9277	191030.7
He	1.0	15.154441	8.33037	22.573233	-89028.086	7070.4795	50657.074	2.6338624e9
He	1.0	7.2056284	6.710004	12.097512	-640.451	-9636.897	-76.97939	6.094113e8
He	1.0	6.0962067	7.7360806	0.18879004	-56216.055	-21592.646	18860.127	151639.9
He	1.0	21.479078	12.052772	7.9994864	29526.666	2687.786	5671.0366	27087.27
He	1.0	23.383451	21.228876	16.581043	-9272.369	-1431.2045	2846.8276	16140.494
He	1.0	20.755579	9.734353	8.903397	-3035.4744	-5637.1978	-6781.3735	116463.414
He	1.0	5.2536764	8.876612	1.6984023	-1205.124	1207.7185	506.41388	113.09841
He	1.0	18.802338	14.104487	16.821434	-5583.8423	-855.239	4437.1343	-33813.12
He	1.0	9.415731	8.201807	22.153976	-2790.819	580.0878	-587.27704	99.87557
He	1.0	15.80153	12.461431	12.846856	-53.020485	-7169.7715	3020.7239	1.5155195e9
He	1.0	12.503215	18.442352	23.175722	-3168.212	5075.5825	1495.2793	3.7937341e9
He	1.0	5.4389534	16.145763	3.6535432	-6970.0913	-83300.09	22241.062	3.6597222e9
He	1.0	22.2267	12.571804	5.8648963	4399.7217	-7544.364	8755.15	-1.2848709e6
He	1.0	5.6187057	3.0811036	19.63358	1032.5128	1087.6785	1007.1052	561966.06
He	1.0	12.893933	1.6607292	0.13336772	-1451.4781	5284.44	-2481.1401	156149.3
He	1.0	15.898143	0.067501344	17.336006	-4006.096	2677.377	196.66092	314974.16
He	1.0	1.0369958	21.094637	4.105602	-4951.276	-829.1259	2948.709	184813.1
He	1.0	21.610447	18.280258	13.858894	3673.579	-10071.278	2655.1697	-903563.94
He	1.0	19.153082	0.25094923	8.849441	-36440.547	-30394.74	-1286.4525	1.4673549e9
He	1.0	11.874926	4.6875334	23.752022	2953.5432	4112.5835	4143.28	4.6796532e7
He	1.0	10.368887	6.412373	19.888618	-7146.773	1533.4886	1130.3921	46.406483
He	1.0	5.922265	6.2692666	2.5778828	8039.577	3974.0037	2526.8975	612937.5
He	1.0	6.691246	22.59095	4.632584	4518.277	-1221.5049	-3893.6777	165646.6
He	1.0	2.869598	8.833184	10.690493	-284.8875	6177.0933	5317.7437	4.6936275e8
He	1.0	22.975636	5.5605345	22.112637	2370.999	-492.6102	-33900.45	605148.7
He	1.0	15.278809	2.0276957	23.383709	-1671.3895	5086.9497	-1267.8164	1.7559851e6
He	1.0	10.723203	18.303185	11.120212	-23303.57	83783.5	25480.742	524621.2
He	1.0	16.358202	12.87189	9.23284	3040.3184	5114.992	-3550.2285	11005.093
He	1.0	2.61956	23.918665	12.675532	-19.015747	-1780.5797	-7273.2397	-17.842615
He	1.0	1.2925345	19.961454	14.535495	-3545.3557	-1633.0737	8971.6045	8.6052904e7
He	1.0	19.5782	9.592814	7.084502	-3514.8447	3773.4749	3395.85	26.428507
He	1.0	13.447005	12.067569	19.709835	3707.0789	2958.4724	-26012.023	6.1169043e8
He	1.0	0.6713302	12.645919	20.702711	956.7777	6937.373	463.06143	-0.90889895
He	1.0	17.965433	4.4723387	6.868848	-6086.0537	-3828.2122	-4435.301	6.799078e8
He	1.0	3.1776166	7.504405	12.355125	79634.5	1230.2587	11750.395	2.34915e9
He	1.0	23.762383	16.238123	11.881549	-738.43695	-5978.8755	3706.5505	148952.98
He	1.0	20.481339	18.292633	6.35207	15436.6455	2728.5007	-6184.7144	8.3717235e8
He	1.0	0.78035915	1.8401288	8.851014	-2421.5906	-588.9912	-5055.6704	167007.92
He	1.0	5.8266053	22.26246	19.044596	-10894.025	-9247.72	2420.1384	-1.9902105e6
He	1.0	8.672106	1.857265	4.702912	1632.3586	507.8474	-5323.516	1.2125741e9
He	1.0	15.269824	12.102747	1.5559694	-31758.35	6127.734	-26222.145	529601.25
He	1.0	15.345897	4.0832233	3.5046766	-2972.842	-7051.7188	-8197.339	-189.91455
He	1.0	0.5402675	10.019867	22.810995	-6857.6074	2232.0007	-9581.289	5.7172506e8
He	1.0	4.8179717	16.895746	10.39511	1816.5072	-1254.0177	422.20428	172645.6
He	1.0	8.545538	4.6249633	21.211685	8174.94	-865.7523	-2203.7288	339869.44
He	1.0	19.271246	11.891606	17.35451	5380.7793	-4353.6724	1218.6005	2157.3325
He	1.0	19.186956	15.050115	21.962456	27114.268	271.11444	30117.422	1.7277875e9
He	1.0	19.773605	16.412127	14.154151	-8331.672	-2097.1526	-2529.2913	-77.15381
He	1.0	1.5573539	5.276885	3.7141283	-2846.38	4194.729	-2345.1643	219982.98
He	1.0	4.8629127	5.103167	19.191895	608.61755	73.977234	-7027.56	-2.0879657
He	1.0	11.655498	5.088346	6.099092	4355.686	-6286.6094	-40.148582	-24.0904
He	1.0	23.9263	14.214589	22.066004	-2435.4949	7665.2114	-7907.8926	1.7705045e8
He	1.0	23.787586	1.4265645	12.009746	-8990.617	388.13358	-1316.9655	-418546.3
He	1.0	23.69528	0.33800796	9.474777	-138.93463	1094.3551	5789.719	8.7653824e8
He	1.0	0.87603176	13.182487	9.45419	-3342.2773	3840.6658	810.7378	3375.766
He	1.0	6.9887247	10.009078	12.038178	2589.274	2131.562	5711.8276	12.298203
He	1.0	5.072494	16.620674	13.462939	6199.016	-1385.3351	-5379.876	-50.718533
He	1.0	9.801822	8.383941	19.61137	-64.20006	4332.4385	3256.9617	1.1544616e9
He	1.0	3.2840967	0.21036232	20.209124	-5302.0903	4743.4233	304.66995	3.506839e9
He	1.0	0.76145965	10.154137	0.7297388	-7748.5493	-449.69446	-2479.493	2.503374e9
He	1.0	20.447544	22.361935	20.531635	-8245.601	5032.2476	-804.3464	1.3205107e9
He	1.0	7.1312804	3.288615	22.323408	-18394.139	-15944.471	-17644.03	40097.055
He	1.0	22.493208	19.99448	11.787118	-20965.605	-63422.03	-17473.783	331074.03
He	1.0	13.280189	18.890425	14.977649	-2289.1208	-1728.987	955.83923	444187.5
He	1.0	21.063993	2.9342706	15.7255745	-10911.766	-935.4502	18315.95	3.1677112e9
He	1.0	11.64027	0.14074658	18.57579	-2097.5847	463.27396	5934.009	2.1641981e9
He	1.0	14.784533	19.167025	2.77441	649.0477	-1520.9619	5011.471	51.94321
He	1.0	17.690754	6.158831	13.718653	-7493.6333	1285.6283	-3692.097	-278511.25
He	1.0	9.228392	3.5420978	19.676292	-4649.2163	-3508.7563	-3982.1106	185797.97
He	1.0	6.508339	23.234028	20.832493	-1887.9365	3241.489	5641.853	2322.1838
He	1.0	10.917557	2.0535777	17.398277	-1927.0547	5008.469	-1378.617	47.836357
He	1.0	19.630072	20.182323	12.591936	-4382.0293	-1113.5881	3191.8992	45.259815
He	1.0	11.942401	21.365088	22.37875	-1732.5831	4088.7075	2057.4678	61.643818
He	1.0	22.805529	0.70023876	7.7186346	42317.453	-12228.798	29875.957	231363.64
He	1.0	14.265206	14.066203	8.902429	-5266.198	3836.474	583.5539	64940.414
He	1.0	11.441524	2.982424	15.230104	-1970.1857	6709.4146	5557.438	9330.002
He	1.0	10.0646715	11.692984	22.423885	-650.064	-1495.2728	-3667.2095	3.617618e8
He	1.0	12.467018	12.054659	17.852983	-281.57016	1785.705	-714.3896	111.34154
He	1.0	23.714615	6.091991	19.462551	27443.686	80125.11	-33407.97	995565.44
He	1.0	17.009253	22.00751	4.682968	5405.3022	317.06897	12145.445	5.269395e9
He	1.0	20.641489	6.490319	2.358246	-46.110134	-355.89722	6069.375	144002.34
He	1.0	12.777533	0.97128904	7.72388	8411.126	-11655.117	-9192.148	227544.03
He	1.0	14.750326	14.367873	2.257628	-3.3706503	-1453.5333	-3379.7876	87.19982
He	1.0	15.0200815	15.34773	19.842413	-4272.146	7236.0127	-3497.411	120527.516
He	1.0	10.098748	21.740292	18.546228	1884.5288	2384.1062	317.16193	485221.1
He	1.0	18.04609	17.322731	22.652908	631.7461	-230.59705	1086.6344	584397.2
He	1.0	14.335152	10.543468	18.101934	-1597.8646	2523.4465	-8006.838	8.396731e8
He	1.0	21.309347	0.8443038	19.133177	4767.9297	-4028.6934	1453.9421	3.8486504e7
He	1.0	18.32038	7.609916	15.903315	-2974.5894	2340.33	318.40305	4.3207373e9
He	1.0	18.055359	14.453024	13.58169	-2006.9257	4797.6597	3776.4111	3.0063153e9
He	1.0	11.825838	15.020501	11.626888	1041.9415	-4624.077	-1256.8639	306999.06
He	1.0	15.535626	18.720005	15.343446	-2941.5532	8277.05	425.56757	-353940.66
He	1.0	13.114072	8.12672	16.401962	15691.462	156.35098	9838.419	2.720896e8
He	1.0	1.7624849	3.1973033	2.4669828	16846.277	11678.481	-47653.816	1.2313002e6
He	1.0	8.673431	9.14373	14.626701	3044.6782	-993.9401	-1157.3278	460552.6
He	1.0	7.0637975	10.451355	22.840277	23152.516	18155.35	-12019.545	1.4178356e9
He	1.0	5.72632	17.73102	1.0218817	-400.62384	5993.9077	-4558.4175	2.935729e9
He	1.0	6.605606	0.47417253	14.823628	-2272.8171	4212.266	5304.017	2.2753835e8
He	1.0	16.245422	0.38708484	22.131739	-503.11148	3273.5862	1708.2396	2.5818909e8
He	1.0	12.789356	17.711143	7.4648414	-4296.6543	-5719.3037	269.72095	-30228.125
He	1.0	2.412262	12.050696	21.720642	-3269.4543	8596.318	2489.1736	-517849.5
He	1.0	23.911066	10.854058	8.864007	-263.114	-7860.2476	-7948.924	2.0521322e8
He	1.0	0.13611487	12.01952	6.8578424	92.40269	1511.621	-3454.5881	427830.3
He	1.0	10.664559	20.106415	0.8365259	-4833.0747	-2867.6177	7529.926	-97.39933
He	1.0	6.257347	15.78652	0.14663734	-1725.8124	-4244.245	-1086.9332	329659.16
He	1.0	14.041762	6.180033	15.929453	-903.9362	69.75655	4715.7393	721236.75
He	1.0	18.392984	4.427741	4.9159427	-1340.0444	-840.3801	2723.7705	137814.48
He	1.0	18.60065	4.6688566	22.53411	2106.7666	2995.4001	-5808.961	369190.78
He	1.0	6.0966845	22.8095	10.413574	74.39836	-5454.7295	-3327.9507	69468.445
He	1.0	4.169301	1.50444	12.011692	982.9162	116.81019	-6198.03	116845.23
He	1.0	17.750097	10.055414	21.123884	-2193.5518	-12068.4	16902.129	739207.2
He	1.0	4.6510773	16.319168	20.703753	-1265.8694	245.12651	-1115.9985	2.0195538e9
He	1.0	2.2309856	22.684372	7.931908	-4506.1387	-5363.6416	-3722.65	-34.828804
He	1.0	11.0089655	9.087705	13.533264	-1923.6953	4655.485	-4037.128	89857.34
He	1.0	3.7484286	7.983333	23.579512	2310.5	-1328.6243	-3905.8948	65.45176
He	1.0	19.947062	18.525932	19.420998	-3713.4927	-8518.482	31976.074	4.87751e9
He	1.0	2.6349556	21.773657	16.056292	5138.9277	-28748.93	-20696.188	674770.0
He	1.0	23.756298	10.229638	20.16618	-129.75766	504.92435	10566.587	-780765.5
He	1.0	6.556959	18.28584	7.7286296	30355.154	-3940.3228	-3797.8162	1.8026723e9
He	1.0	20.479753	16.247028	9.505227	2242.1245	10354.125	-10472.841	1.7988213e8
He	1.0	14.939606	19.625761	7.1796913	329.42633	7831.4805	6273.927	-128.50536
He	1.0	22.305176	4.866105	17.502306	-3762.9333	1168.6315	-3365.224	2.495257e9
He	1.0	16.129803	18.329912	23.408455	-5112.74	8202.48	-2075.3684	3.8871457e9
He	1.0	5.6629167	20.19899	14.567755	1624.9774	10877.352	5123.0996	-242.75212
He	1.0	16.279707	8.077588	12.594977	-39138.457	11863.801	-79525.55	613127.5
He	1.0	19.658266	2.629034	3.3325412	6168.1714	2954.801	16494.559	1.8468792e8
He	1.0	0.52796113	19.778448	8.883017	-2318.5798	4694.0444	1941.6571	218569.44
He	1.0	6.82468	11.61773	16.794659	-2583.7488	-3903.8809	-3893.3723	49332.79
He	1.0	0.38441446	20.10245	1.6026474	-8245.984	2868.245	1256.6567	-71.037186
He	1.0	22.52452	13.519419	1.9911013	-292.46405	-4134.545	2570.4053	4.1449398e9
He	1.0	8.273516	11.404113	11.15031	-2648.449	-4212.8154	2356.5535	45.74989
He	1.0	0.65102947	7.646692	23.289085	6982.1504	-129.37703	3718.619	-33.955166
He	1.0	6.5630774	19.640879	21.524364	5871.5347	8286.048	4377.109	-181.51967
He	1.0	8.448012	5.0331764	5.36641	2459.7046	-716.2833	-74.281586	1.14819416e8
He	1.0	17.553846	1.8678439	9.392948	5283.3706	2893.434	2132.2566	37744.6
He	1.0	13.652424	4.0206637	0.5462534	7808.8486	-2045.8395	2772.8953	-59.046707
He	1.0	14.866469	22.715742	14.3538685	-4086.4795	38078.004	-27761.154	276715.84
He	1.0	8.11892	18.672194	9.436946	-7294.205	154.73618	2994.7397	265837.72
He	1.0	8.097867	7.531899	2.492901	-3629.3208	524.48083	-476.86874	637153.56
He	1.0	16.629932	9.696191	10.465886	-3012.983	8550.8545	-1775.7397	505408.62
He	1.0	10.390792	23.278421	5.513981	610.45496	-3260.2944	-3761.7556	292452.3
He	1.0	23.108728	4.6222224	13.711125	3608.8726	-11933.104	-3200.9722	1.9853682e8
He	1.0	3.429551	11.098417	5.837547	76894.51	8630.714	-67338.75	2.3401752e6
He	1.0	21.612429	16.014977	4.938855	-103927.1	68996.01	-8174.1772	5.597826e9
He	1.0	10.392642	15.774347	1.5298463	1095.7394	-1053.2335	-1595.5538	404626.47
He	1.0	21.259113	16.680708	16.514753	-1961.5378	-941.79095	711.0089	107.73235
He	1.0	17.673094	3.016293	21.216223	-7156.628	-2937.2432	2050.375	-37.552155
He	1.0	5.2413774	13.151891	5.170339	1069.3401	5473.1577	-3290.048	1.2022871e9
He	1.0	21.274405	22.740385	0.20201807	5560.8794	2542.702	-1780.2666	1.4002813e9
He	1.0	21.694895	19.340763	0.98761266	-3399.4377	2921.5408	-637.146	349561.0
He	1.0	3.636016	22.361248	19.818956	589.3794	4152.41	-3788.9097	1.5145074e6
He	1.0	13.229987	6.3794146	5.649933	-28613.938	-14822.348	-607.66565	1.3824788e9
He	1.0	9.408262	14.876685	13.5117655	-6539.787	18780.89	-6843.073	1.6270719e9
He	1.0	4.738882	1.0701864	9.016692	5631.49	6839.5234	-1829.3683	13693.135
He	1.0	8.501609	8.956368	5.875711	1833.478	-2643.5889	-2196.611	1.8325928e6
He	1.0	18.195925	21.792374	22.308548	47798.965	-17551.379	40792.445	4.0952893e9
He	1.0	11.862893	20.541632	10.567854	77.203575	4938.8877	-1312.2329	280100.28
He	1.0	7.0030446	18.560736	2.4095073	2114.5303	-7263.493	3296.519	-47.398926
He	1.0	16.256079	12.8169155	16.176416	-4598.4756	5316.1914	-10631.764	-280.89188
He	1.0	22.490906	11.362937	1.0120151	91104.15	-76787.14	-3361.8252	1.0227063e9
He	1.0	15.497562	2.6220138	14.372505	-6685.2046	281.25766	-510.75775	46929.07
He	1.0	3.4969652	6.4632792	14.165416	2884.283	117.732544	-136.79163	2.0074377e9
He	1.0	14.205309	14.110218	21.709026	76443.26	26818.709	-65701.125	3.9947612e9
He	1.0	17.40391	10.096666	1.156972	1075.3444	-4284.3315	-2898.6577	259204.88
He	1.0	4.507775	18.225248	19.118628	-2397.2705	5920.1167	6698.644	70244.35
He	1.0	19.298496	20.647448	4.3097234	-1130.9939	-1429.6906	-3452.1597	416284.56
He	1.0	23.93748	12.863927	4.2501035	-10109.904	14492.048	35902.074	727007.6
He	1.0	7.27622	15.0074835	6.7079945	-18352.418	8842.778	116691.766	655063.5
He	1.0	4.1073613	22.753649	5.830436	-6829.4595	-5060.0767	-5169.634	24145.81
He	1.0	5.026554	6.3993206	12.638982	-10015.481	1746.2301	850.7754	-682161.7
He	1.0	14.9028	22.252626	8.131703	-210.09879	134.30704	2263.0027	107.85148
He	1.0	13.535538	1.7069579	15.463183	-24785.682	106183.945	-172961.36	671980.1
He	1.0	16.910913	1.2421792	1.0662715	79764.78	-57114.32	-43134.812	656092.56
He	1.0	18.374365	6.18291	17.300886	-2925.5044	-8286.825	3119.1558	8.3510336e8
He	1.0	18.433018	15.886317	9.909451	-3813.1396	102.82692	1033.3774	444493.22
He	1.0	14.093788	18.796555	18.886993	3072.6436	1831.5667	-2455.113	317093.88
He	1.0	15.11681	9.456582	4.411319	-1915.2452	1371.4648	4465.2617	289720.12
He	1.0	17.922413	4.8087854	12.018809	693.235	-127.854034	-3662.344	318748.25
He	1.0	9.432093	17.778807	16.821016	2716.046	3291.862	-2361.8337	308475.7
He	1.0	17.057083	20.724867	13.258597	-4275.343	-916.04034	8294.447	3.2411578e8
He	1.0	11.750967	7.0050263	23.720243	4330.9155	2423.83	243.7318	296631.78
He	1.0	0.6656889	7.2767067	6.8846207	144.33604	5205.1094	5393.885	2.5555715e6
He	1.0	4.2584796	6.8006268	16.848204	7220.728	2642.8708	-5522.6875	-503607.78
He	1.0	8.415374	20.864273	17.260796	388.12268	212.36409	3130.751	96.1597
He	1.0	16.978212	0.90712756	20.11377	-6576.319	1891.0532	2377.5415	3.813089e6
He	1.0	2.5593927	3.9476404	5.1607256	4229.2197	4248.834	4020.3022	1.9485944e8
He	1.0	4.5448637	12.144051	10.882253	-2568.774	-2435.4033	-804.21533	311540.47
He	1.0	10.767401	4.8226194	3.597481	-2377.5864	163.2785	2202.5852	94.769615
He	1.0	7.9301214	13.300789	15.046222	-671.1906	1367.6228	-8056.242	212207.83
He	1.0	6.314221	14.551157	19.012058	-76254.234	56985.95	-184940.72	2.7145682e9
He	1.0	9.992442	3.3564537	4.8182297	4172.716	3722.7937	5995.2295	98110.79
He	1.0	7.046143	14.676616	1.7395701	-5762.0815	-729.5132	1195.2032	3.661633e9
He	1.0	6.557418	17.23703	22.321545	-19315.465	-21407.49	-21852.246	2664.3884
He	1.0	21.47274	7.4607816	23.203152	8194.245	2677.816	265.65042	7.27768e8
He	1.0	18.572344	18.417582	6.9154725	-13051.389	-3011.4143	673.86957	1.4528978e9
He	1.0	10.702869	20.128988	14.098521	452.022	-2189.3733	1298.4082	104.06016
He	1.0	0.9559483	3.6887448	12.950973	-4416.4287	-401.4371	-2807.715	52.879444
He	1.0	19.72413	1.7708793	14.451831	3593.9746	7239.359	5325.401	235820.84
He	1.0	17.541761	21.113373	17.377975	-7684.5415	2918.5674	5044.848	-544732.2
He	1.0	23.134045	21.49721	2.3340638	3527.8486	1737.5172	-284.41397	410737.66
He	1.0	12.902647	3.1114938	13.555966	-565.25275	-1200.4747	-2328.314	513748.28
He	1.0	2.9032829	13.806934	17.78587	1156.2682	-1863.5741	-1748.5771	100.97737
He	1.0	0.31655148	17.786713	2.6509955	-379.60022	5057.7617	-3295.1873	485552.62
He	1.0	18.24125	10.169655	15.811792	3654.9846	-4620.04	461.10846	34.344154
He	1.0	5.4965916	14.455453	14.6582985	-4552.6143	-36.010323	6725.8774	-42.34339
He	1.0	17.244228	1.0678391	15.71109	-4062.649	3020.7217	503.86835	1.00309434e9
He	1.0	18.94417	14.538761	5.94678	-169.63533	10015.475	642.62695	413669.62
He	1.0	20.941877	13.148542	22.980595	-1966.52	-5163.6343	-11117.284	6.2811494e8
He	1.0	18.207878	11.529357	23.35655	-1518.2827	-2421.662	-1052.5823	97.589714
He	1.0	0.55997723	16.28643	22.810034	7318.791	-2320.984	904.5657	131551.27
He	1.0	23.542576	18.525831	10.043016	-5578.815	-3369.904	8394.292	56313.793
He	1.0	12.634304	11.55987	21.456379	-1194.9316	-10499.511	12148.292	125396.75
He	1.0	23.997946	23.601221	12.825444	3330.8276	-4934.9053	-3911.5137	1.9665928e9
He	1.0	17.964628	19.33375	8.580583	-3990.3909	9420.713	19647.691	695445.0
He	1.0	11.6517105	22.155148	16.982384	1025.5613	-3937.376	-230.8607	488846.78
He	1.0	12.493655	6.331333	11.241605	826.9437	-923.27783	300.41638	584171.1
He	1.0	3.379207	11.381488	16.483818	-3734.4946	640.55835	-1650.2789	704487.2
He	1.0	15.414988	15.260461	10.25409	494.74487	-3597.9954	1613.7737	409991.38
He	1.0	1.1343946	1.7483116	22.900948	-12806.69	23103.293	7638.374	1145.5737
He	1.0	16.73387	3.3698885	5.6595626	-1160.7458	-2232.4436	483.57007	104.52813
H	1.0	16.18162	3.6369364	0.34182596	277105.88	-324811.94	235429.36	-1.3124136e10
H	1.0	7.2291245	12.682729	5.896378	-143287.53	308323.44	-19162.936	324253.7
H	1.0	14.909002	7.3290634	5.2086897	-71598.95	109384.76	435366.38	518999.1
H	1.0	7.8470926	18.390766	13.761684	-27318.793	265549.34	148293.86	687096.4
H	1.0	21.92903	3.417985	6.0041547	-131945.05	75611.94	-83755.99	3.0924262e6
H	1.0	18.165985	23.634874	0.28804818	-105935.21	244300.6	42687.062	2.1239828e9
H	1.0	20.59045	5.46736	5.947141	-133632.28	383022.5	-87787.08	8.857857e8
H	1.0	19.612083	6.6754146	9.439788	398188.0	493219.88	92111.195	-575280.56
H	1.0	20.2967	10.598211	1.8227906	-306263.44	-146872.05	482241.25	-1.2797668e9
H	1.0	4.9317408	10.317883	18.633963	-250550.16	340224.28	-131540.3	1.46909e8
H	1.0	2.665953	15.636731	22.606785	-484069.03	431751.28	142586.61	-453529.34
H	1.0	5.3918076	3.9623563	8.8097515	85462.664	-164894.86	55319.23	3.4255462e9
H	1.0	4.084003	2.614256	23.709797	-274134.6	43193.12	-99833.5	389577.97
H	1.0	6.599891	11.161607	4.177684	-264275.25	-530883.44	-67341.75	581415.6
H	1.0	10.48004	1.8356417	19.327345	-72032.35	27435.984	-607577.06	-1.6767868e9
H	1.0	2.3862562	4.999072	16.302736	-152261.22	408659.1	-495654.47	-2.6056794e9
H	1.0	3.1741116	13.607169	23.08122	287407.22	-156550.31	201171.58	2.0094367e9
H	1.0	1.6392057	10.6551485	4.807933	44431.18	47436.07	153766.83	-440726.12
H	1.0	16.634216	6.074467	21.41706	176693.66	-88481.92	-27273.877	2.5274662e9
H	1.0	1.2387302	7.5325265	11.991796	-241856.39	165690.5	583896.1	-1.1421202e6
H	1.0	11.026356	21.286465	4.0422044	-67497.48	-635.7612	244524.39	444686.03
H	1.0	12.224822	22.932579	7.4819717	331567.72	35663.637	-739196.4	-5.0943857e9
H	1.0	5.675795	0.45129076	18.895374	167145.3	235996.39	34170.88	1.9678484e9
H	1.0	18.738214	12.597517	4.189763	-225492.1	58631.508	114499.875	-468561.34
H	1.0	4.3070917	21.19326	21.927734	-73572.3	118968.12	-82781.74	2.689904e9
H	1.0	19.120716	18.721848	3.417393	-206515.64	-209402.44	43613.617	872769.75
H	1.0	15.568481	7.3176117	2.8539903	34254.832	-462642.75	-302015.78	555813.8
H	1.0	20.669476	21.514154	13.755346	-57659.96	-662891.1	116053.516	-2.5210819e9
H	1.0	2.335047	21.738823	14.077562	144365.25	15933.653	185380.78	56796.22
H	1.0	16.930632	6.6103034	1.6237597	53651.777	-183288.92	312458.78	-1.7959488e7
H	1.0	10.664612	19.274723	7.1420436	29169.719	-295490.12	13831.303	531538.2
H	1.0	0.52407306	17.213226	13.806575	432555.16	-351650.22	-294986.38	-1.8963978e9
H	1.0	2.069689	0.019066326	22.671242	-303411.34	-54992.105	-128739.58	250704.28
H	1.0	21.640434	3.1862848	13.846875	11299.277	180254.52	265461.56	-27732.996
H	1.0	0.30160585	8.320396	9.245915	-35320.324	-16603.121	586497.8	-1.2558868e9
H	1.0	7.16147	5.6676564	7.685931	-227049.95	31750.188	57367.86	2.408647e9
H	1.0	7.698181	1.8552958	19.883322	63698.742	-384741.62	-328299.88	-39886.703
H	1.0	20.297638	17.833757	23.501772	187504.56	-199743.36	-383256.84	5.4707014e8
H	1.0	16.05979	19.673067	18.6762	-18736.521	107234.91	-186477.05	1.1968625e8
H	1.0	21.795109	4.2512026	1.9588788	-1529.3062	641638.9	189596.67	-3.2026511e9
H	1.0	9.928439	13.284208	14.586616	216819.0	541806.6	283030.7	-662914.44
H	1.0	0.5372146	13.106397	17.927694	-306543.78	-353479.72	404706.62	-473506.62
H	1.0	13.094121	15.803177	20.70165	15011.538	-366655.38	-16699.96	1.834078e8
H	1.0	14.631806	16.82108	6.945377	-263190.1	-35164.16	-300037.66	240303.56
H	1.0	0.53323436	0.057953205	3.1866486	-217871.67	-197800.64	96938.734	6.481054e9
H	1.0	15.595696	4.2943974	17.82804	152401.69	72818.31	-157605.75	472504.06
H	1.0	21.180109	6.722035	21.12407	-411254.47	570780.56	-178484.66	290495.25
H	1.0	20.540262	20.924559	2.230579	-14663.584	-48895.96	-3933.261	2.9783299e9
H	1.0	14.817145	16.303677	15.924711	-121156.78	151676.95	156311.5	2.2346145e9
H	1.0	8.798003	22.870764	1.7920623	540534.5	-239948.67	-92554.83	-311959.44
H	1.0	3.916829	11.530575	12.688028	-140862.1	-178600.95	-131883.31	127573.53
H	1.0	0.69029254	17.399416	8.054644	-209849.7	437619.2	-28520.418	18372.436
H	1.0	19.66684	16.031034	18.293888	202232.88	40339.93	130020.16	453378.25
H	1.0	7.771214	6.6704383	16.535345	303822.28	195166.48	-45959.367	5.1756e8
H	1.0	18.542776	17.953362	12.8312235	62259.723	224681.64	455033.66	-42596.195
H	1.0	0.14153698	23.9757	22.010311	176599.83	599650.44	142417.0	554060.6
H	1.0	4.864006	17.866934	2.928958	518118.25	-52925.586	-98938.32	-233293.16
H	1.0	2.918279	15.983583	12.53218	-199067.94	274718.56	-198301.36	-367848.12
H	1.0	13.741739	0.75981563	17.128695	338590.16	95942.25	264011.38	-5.9237617e9
H	1.0	17.058765	17.66013	16.650448	-451584.53	271214.28	137448.92	-574219.25
H	1.0	4.133006	9.326471	16.101404	536232.25	-341410.7	69354.73	-1.0962091e6
H	1.0	20.228672	16.312021	1.6229224	49185.17	-369200.2	356602.03	-2.593149e9
H	1.0	19.5419	13.024278	10.911219	-374541.1	2251.0696	-562723.0	-190637.83
H	1.0	0.20342654	20.683249	22.334814	-259011.77	72107.58	98067.984	36788.074
H	1.0	3.9298995	14.700463	5.704451	-586949.9	653748.6	-665755.2	-2.975094e6
H	1.0	19.448174	14.177989	9.058779	-26327.32	442009.47	-155196.86	2.953653e8
H	1.0	23.01292	21.803982	12.297503	309137.66	-129635.99	-693904.9	-1.1111925e10
H	1.0	18.139843	12.920942	14.933153	144310.12	-79079.69	359048.06	219160.38
H	1.0	3.7866971	20.923145	3.9820561	-242185.69	-114298.23	249776.56	-259460.25
H	1.0	2.3477902	10.510324	11.82214	519980.5	27241.67	-227038.52	787805.56
H	1.0	17.824306	3.1931803	18.346329	-257301.38	-165060.73	-172298.89	46958.41
H	1.0	9.544907	21.630672	20.666674	-632407.25	-42275.293	262002.97	-1.7219217e9
H	1.0	18.598806	2.1190717	16.749401	-190758.55	-42669.98	-96674.63	-273377.03
H	1.0	15.515021	10.371482	0.29928008	2618.0286	22443.174	-340934.12	315777.12
H	1.0	10.592457	7.320717	12.497299	96433.09	44449.914	-9605.416	102183.13
H	1.0	18.000835	16.04618	2.2340977	-169000.88	30723.564	-7097.7256	529154.06
H	1.0	5.0703974	21.520857	16.781984	-244630.23	-204559.08	695897.44	-4.2227162e9
H	1.0	19.334549	11.336335	5.66559	124149.14	-3684.5532	330238.6	7.237176e9
H	1.0	22.108274	7.1930065	9.714723	28578.422	88267.78	250646.84	280472.56
H	1.0	8.485677	0.07613007	5.967404	-188968.64	-156873.58	-146915.42	2.0003369e9
H	1.0	14.8564	7.298574	0.706565	33645.848	313277.03	119808.07	323794.66
H	1.0	13.28602	13.934441	17.637058	113480.31	-162504.67	-117726.08	421428.53
H	1.0	1.2225636	17.701067	17.22548	207410.6	212245.88	694604.7	-910282.9
H	1.0	20.219944	19.003042	17.520428	-340200.03	235348.62	114826.305	1.2511645e9
H	1.0	16.470661	8.614087	8.620113	380287.9	-239025.64	-611568.56	-445682.53
H	1.0	8.860456	21.85171	5.467481	-293089.4	1716.223	-360131.25	3.5184938e8
H	1.0	7.6909013	19.016418	16.25571	-225492.6	-144791.56	232810.84	152920.27
H	1.0	4.9991183	14.581668	11.706832	389586.8	314937.38	-37931.754	129304.58
H	1.0	22.293879	23.05994	13.758167	115948.516	541863.25	334718.44	-684070.7
H	1.0	4.794501	4.4809856	11.073441	352803.1	278628.62	-371209.53	-3.2856259e9
H	1.0	21.670218	11.33036	13.705823	-210147.69	185866.6	-83192.734	1.8711645e9
H	1.0	9.99044	23.875732	20.445475	459147.53	-222110.25	259298.22	-1.0275996e9
H	1.0	15.943133	0.86729956	12.900313	54351.17	234786.08	-172897.5	644330.8
H	1.0	8.664067	4.0578504	23.3244	75652.62	238275.55	-255058.03	1.5014112e9
H	1.0	16.140757	3.5636775	10.6239195	-118290.62	194244.92	462056.1	-2.5572277e8
H	1.0	13.3509035	1.208384	2.8541038	825881.2	-155701.97	-32969.82	-1.1429724e6
H	1.0	6.995312	14.080508	20.743824	30087.229	-39335.35	295448.22	-737762.25
H	1.0	11.369033	14.22725	19.162947	-508160.56	-189564.94	330623.72	-1.9678204e9
H	1.0	6.008845	5.550933	17.55716	-290288.97	190312.17	228471.16	241361.89
H	1.0	8.655666	12.429926	16.745714	-309407.16	58464.76	-17506.395	1.3931551e9
H	1.0	23.206192	12.177751	19.037334	-166654.61	-211015.88	-224623.72	305468.75
H	1.0	16.966808	14.467084	18.663145	-393269.1	-281053.8	92160.26	4.7867126e8
H	1.0	17.415627	1.7266321	4.1830206	167473.16	-406142.06	-404251.5	-291550.22
H	1.0	14.051977	20.00902	16.633993	-273075.84	-95094.26	113032.19	-531341.3
H	1.0	12.69508	17.9962	13.060936	-92879.77	182782.55	503218.25	-148362.94
H	1.0	16.357992	18.835842	12.390784	-84401.234	478995.1	201143.53	3.9086226e9
H	1.0	1.9608861	8.32116	2.3331816	-371704.6	-60266.637	-539020.25	-2.9631836e9
H	1.0	10.717199	10.989678	0.3897887	-212850.81	411625.9	61538.86	-8.5722906e8
H	1.0	3.4553032	20.30848	19.79135	283887.97	196877.16	-151814.78	-526935.94
H	1.0	17.055742	8.19889	14.394052	-291008.84	384502.28	437740.72	-9.28056e9
H	1.0	24.059958	16.711761	20.884779	-120421.586	-446131.9	-178640.86	-149210.31
H	1.0	2.3634126	12.2021675	10.605444	-363853.03	157547.61	-299743.7	-9.080362e9
H	1.0	18.270563	6.41846	7.4817767	-35357.414	278924.72	-189412.8	1.02753805e9
H	1.0	21.15312	20.196054	19.450861	-322872.56	-153065.31	82520.99	801307.6
H	1.0	7.2020364	17.005907	4.011649	-41842.816	247244.16	165913.33	269930.7
H	1.0	19.552326	16.547932	20.441942	433127.5	-420792.28	334653.4	-574452.25
H	1.0	0.7084133	14.722943	3.6468682	352221.0	-373138.1	-78854.89	-9.092277e7
H	1.0	17.168097	8.10954	6.5974407	-221401.42	166790.47	9473.505	-2.1561928e9
H	1.0	0.10266097	12.372645	2.3648334	-452736.88	110145.46	453899.28	-3.3470748e9
H	1.0	1.4945259	11.056229	18.645935	340563.03	-523901.1	-197720.02	-457303.1
H	1.0	20.872746	1.2403561	8.9301195	-159638.5	94524.35	105802.445	541619.56
H	1.0	21.524336	2.49449	17.86742	173691.95	161834.98	-389711.4	4.301842e8
H	1.0	12.553386	12.645284	10.759594	495469.7	-99158.79	214796.11	-1.1915436e6
H	1.0	5.7852154	9.650414	20.897058	449095.7	225145.39	-169936.67	3.117512e8
H	1.0	13.652122	5.218502	21.593027	-294841.12	-71598.95	-171467.77	-3.109658e8
H	1.0	8.462832	16.002771	0.84773606	193198.97	-227871.19	-88020.24	-48493.453
H	1.0	11.9460945	23.042494	20.67202	-251629.08	26352.887	-105806.04	-4.0861115e9
H	1.0	15.200585	13.852112	4.437201	-248478.02	283936.2	-9686.48	251858.08
H	1.0	5.5397186	15.446653	22.340605	45837.793	-201263.19	55902.203	4.570661e8
H	1.0	11.957153	7.972861	5.3785944	-328814.16	503498.5	11523.556	-2.1278313e9
H	1.0	22.087727	5.3758364	15.491993	-119227.1	450866.78	-46746.387	-427585.22
H	1.0	1.4866536	6.2843356	13.922579	282697.75	466543.78	-431173.4	-5.673328e9
H	1.0	7.9706335	18.203325	5.829576	391079.25	-570403.6	400180.56	-3.763202e9
H	1.0	12.217894	4.261493	20.412031	214753.62	-422581.03	-277466.7	3.685098e8
H	1.0	20.998457	17.161247	11.848539	-299417.53	137810.97	42394.996	330224.1
H	1.0	6.7085967	11.496396	0.72443205	-19543.135	-275638.1	589370.44	-2.575835e9
H	1.0	14.818045	23.27627	5.318546	-306256.3	33717.676	-15511.224	1.8384797e9
H	1.0	6.5077286	10.523002	8.730866	71803.63	269592.1	-4708.8965	446878.94
H	1.0	19.191578	22.994678	13.952702	223738.97	211225.73	193546.73	-1.5726538e9
H	1.0	14.703499	6.16581	19.900301	-320973.06	-289604.53	342561.0	-7.360118e8
H	1.0	5.551369	22.50733	0.009422526	-325003.22	-442885.2	555881.25	-1.7798252e6
H	1.0	7.9722214	23.397686	13.96729	-578368.3	154155.98	6021.5796	-308396.22
H	1.0	3.264603	11.187271	19.964066	-227552.64	-512519.3	-168340.03	-243814.81
H	1.0	13.269081	8.89245	6.580311	-301786.4	83118.2	134066.31	1.5814577e9
H	1.0	15.387734	9.118612	19.198053	33657.98	-201375.53	-127535.41	297971.53
H	1.0	23.16884	14.860187	5.051952	164331.05	172217.14	240848.16	-214162.7
H	1.0	0.46368772	4.616674	17.192308	163206.12	91833.766	-197947.62	-280158.72
H	1.0	12.7163725	13.606128	22.843407	245748.62	174877.16	-627654.94	-1.7957421e6
H	1.0	23.278793	21.728842	5.4585547	549574.9	233099.17	-275984.88	-1.4767489e10
H	1.0	1.2136791	2.6425467	4.277721	-25790.09	-182026.45	-182067.97	-1.4570016e9
H	1.0	23.766497	6.416274	17.472122	-56055.74	114106.555	110880.234	1.2443758e6
H	1.0	4.964009	9.920465	6.9627247	185163.64	-398920.06	-133342.84	639391.4
H	1.0	13.61338	20.857613	19.780075	-284824.25	28684.215	-368569.78	-217899.31
H	1.0	16.068161	11.359793	20.830069	294508.25	-2853.6738	7424.6006	388541.8
H	1.0	4.442869	13.555171	19.918737	-358768.28	-93871.45	586318.0	-4.2387914e9
H	1.0	21.726984	20.583708	4.133209	-144843.83	-424820.97	518910.28	-1.7605315e9
H	1.0	2.5839791	5.1262803	11.139749	340087.66	433973.03	431089.06	-319066.38
H	1.0	22.345955	15.247417	3.0343564	-340412.9	-100939.73	-208667.84	-1.2927834e9
H	1.0	13.708574	11.132719	9.13307	-125637.27	-5834.975	-583588.3	-249490.05
H	1.0	7.814733	0.34487474	3.580688	-156678.1	-166489.92	112127.05	110925.734
H	1.0	20.450731	22.176525	10.288504	72014.65	-62593.54	-206217.12	-4.4650467e8
H	1.0	20.31498	10.329548	16.356087	-53899.055	56547.492	101064.03	644657.0
H	1.0	22.900005	15.637617	9.476803	-538803.44	-69986.3	10428.122	-125456.336
H	1.0	4.923174	3.561506	13.423832	-164657.36	-11450.959	40976.48	3.3612022e9
H	1.0	13.230647	23.959185	13.520572	23233.1	118439.78	-307884.06	332760.4
H	1.0	12.190805	16.411322	0.12934108	99616.875	176191.47	317781.34	-26465.387
H	1.0	9.0698185	18.192715	2.1651692	39611.27	443840.22	264077.94	-2.1599022e9
H	1.0	0.7995686	14.842157	8.138162	-65936.07	226230.94	144146.2	2.1080887e9
H	1.0	12.742363	23.05385	1.2799097	-138682.77	-439697.03	11240.791	-30829.424
H	1.0	12.83645	12.004152	1.3327124	187133.84	-191946.6	-246121.62	276655.5
H	1.0	16.970541	11.182623	4.993882	8420.544	21358.168	478780.44	-1.4539679e9
H	1.0	0.69139004	23.08216	1.3196718	413499.06	-41533.496	-132147.6	-1.5313606e6
H	1.0	14.310577	5.0798345	11.836969	-82222.17	-113597.984	-130767.71	513088.56
H	1.0	18.291166	4.880142	2.6738763	152171.31	335783.84	105829.31	104743.33
H	1.0	15.428163	2.2484171	1.8347206	41770.242	24459.764	391420.84	-540322.0
H	1.0	16.739862	11.907194	2.8639433	-478034.47	-127963.84	28625.55	-2.38559e9
H	1.0	22.193083	12.06321	21.649282	-261049.22	246562.28	409875.9	-7.595604e8
H	1.0	18.300964	23.269808	3.80945	-130545.4	-137594.94	287385.28	-106155.27
H	1.0	6.7750707	15.194977	11.037509	410856.44	-612425.75	-276557.0	-6.296734e9
H	1.0	19.929066	4.063893	19.941988	-498414.88	-186225.11	33359.344	-97639.71
H	1.0	15.95288	17.89168	8.184588	-643247.7	-47020.6	167319.47	-490627.7
H	1.0	14.051184	19.549845	0.43802804	-151307.02	263371.28	-72520.46	1.7966363e9
H	1.0	16.643581	22.260126	21.179976	-37737.19	67780.7	37303.336	241420.62
H	1.0	7.8854704	8.328265	23.64889	394501.8	145632.05	51672.938	-1.1868401e8
H	1.0	22.633295	9.056694	8.253103	94355.4	-150109.97	266330.1	2.0383457e9
H	1.0	23.852354	4.1277623	4.9598074	131124.1	-392114.84	249383.42	1.7965506e6
H	1.0	21.086376	13.853364	21.108006	-290772.12	-64725.9	270627.94	-5.0591145e9
H	1.0	12.987677	2.3522131	5.5692124	-431456.2	-45578.355	-36918.44	5.0527363e8
H	1.0	17.824976	19.566381	11.142345	187407.23	-276725.53	29898.822	-620806.3
H	1.0	16.237036	20.278015	22.757698	-241494.47	136957.16	178956.25	-3.670423e9
H	1.0	4.988464	12.185888	14.36473	-111409.97	200488.55	212549.83	1.8146911e9
H	1.0	10.687008	3.3227417	13.22497	249593.58	139235.42	-127685.18	-88882.2
H	1.0	8.84334	11.3989725	14.849067	89641.8	-322374.78	-281961.3	131487.6
H	1.0	12.532775	10.334281	12.169821	130359.29	-127598.586	352357.75	213645.84
H	1.0	8.899908	14.082161	10.189911	96136.65	393589.6	-46426.98	9.586207e8
H	1.0	0.9864017	17.96372	0.6965272	57357.387	-236224.92	198030.36	-4245.311
H	1.0	20.70673	23.473434	22.202162	28615.332	721136.8	-90.9008	-1.416444e6
H	1.0	5.701897	12.44428	18.787834	-64854.492	243478.28	-75588.95	2.033211e6
H	1.0	20.692661	8.521863	13.089554	73933.055	-17046.307	-44272.438	3.8170276e9
H	1.0	13.031194	8.881251	23.24697	-283154.5	135218.95	-165726.8	-1.3889347e9
H	1.0	0.3332321	4.108889	22.303862	224900.6	130488.56	-51509.31	-972714.5
H	1.0	24.027279	2.0662818	2.658426	-253895.3	353282.03	259012.17	1.02159034e9
H	1.0	15.241014	14.501181	17.278603	68290.7	195598.33	233722.14	2.070026e9
H	1.0	20.719772	1.8569856	12.614744	-1399.0184	157622.81	-201619.05	309044.7
H	1.0	17.892237	14.291825	7.6719346	123514.63	-44243.242	176934.3	-5.242393e9
H	1.0	10.738304	11.685529	16.233273	43671.22	-294750.72	179920.45	-1.4170026e6
H	1.0	16.134504	21.370094	3.008762	-571030.0	46802.723	162170.48	-2.4620662e9
H	1.0	11.616592	0.23563547	9.432319	-658880.75	504540.97	349151.34	-6.995046e9
H	1.0	2.7311418	6.7686462	7.776131	172034.17	-260086.02	90085.76	664115.2
H	1.0	12.594754	14.6487	1.5155727	-188278.23	-43825.793	253591.47	351745.28
H	1.0	0.77992296	5.2087765	6.424118	-44845.16	-110715.55	-176495.33	-1.3109352e6
H	1.0	0.42516726	7.9159236	19.08547	20289.916	190677.08	-700235.4	-1.1572305e6
H	1.0	8.092862	22.136286	9.023843	-511144.25	90059.18	38259.645	448056.16
H	1.0	11.376391	8.954712	21.746275	214540.17	-88332.984	173592.92	379134.6
H	1.0	22.222458	9.391117	10.61863	214565.58	137992.02	-557340.7	-323983.38
H	1.0	6.3950152	2.090155	12.068982	-202231.23	-186354.47	-394931.34	1.5625251e8
H	1.0	18.131105	2.5084844	23.624403	-30251.543	710468.3	220171.34	-764540.4
H	1.0	9.776354	22.187895	7.5225186	-92561.03	219311.75	-46940.87	455841.44
H	1.0	2.6396215	13.640616	2.7757638	80022.1	102057.055	210016.11	453075.56
H	1.0	0.64464754	4.172666	0.4254212	-492367.38	-23940.232	-227631.47	-100881.08
H	1.0	21.430101	0.026313897	10.733628	-124708.38	-631959.2	-255527.25	-6.0447995e6
H	1.0	13.344101	3.2914453	22.591688	-344555.75	-57046.777	-133731.44	1.2891063e9
H	1.0	23.41274	2.8534882	7.127473	-297096.62	164632.92	-217654.64	-2.4550348e6
H	1.0	22.820215	14.468451	7.059142	1975.1448	55381.215	177975.88	2.5876595e9
H	1.0	2.5971205	4.3275733	0.3842801	143686.97	-162702.97	160814.89	1.1540398e9
H	1.0	19.274977	15.758194	4.4014044	-278104.5	307134.97	410650.03	-1.3659099e9
H	1.0	22.08804	0.45718795	23.10748	113715.53	230219.62	152667.23	550812.44
H	1.0	22.727955	12.550006	10.181867	343321.94	-200847.8	-58399.09	204796.5
H	1.0	5.4592338	18.784595	9.975653	-466611.2	195320.11	164398.4	-220260.77
H	1.0	19.407751	20.485676	23.986134	36540.49	222064.73	29358.832	5.081148e8
H	1.0	9.881661	19.385765	18.72823	275128.53	-4727.335	681114.44	-729436.25
H	1.0	18.984838	15.373605	11.935036	-122301.32	-406174.03	168797.56	88094.78
H	1.0	20.986763	23.255417	8.621795	227955.61	187722.36	-102297.47	506200.56
H	1.0	1.0729986	17.558872	10.944235	375798.56	-100998.85	335632.4	-1.6369678e6
H	1.0	15.659811	2.7952957	8.594308	290508.0	72541.54	-133401.73	3.5305953e9
H	1.0	18.263527	2.5748343	1.9206324	307249.47	-178646.31	379827.66	-2.1366583e9
H	1.0	4.626434	10.807561	4.2066774	420587.47	-143220.33	102539.016	1.1568745e9
H	1.0	8.039201	6.6336246	14.546336	-212826.05	175543.27	73855.03	403560.12
H	1.0	0.21506968	19.362404	16.908674	226177.06	-43339.062	-57603.734	2.4194476e9
H	1.0	1.1455239	3.0464475	16.15813	-215723.77	610678.0	-268775.1	-4.2288786e9
H	1.0	18.373472	0.29022145	21.892626	-375536.56	-101777.7	-353204.1	4.5167133e8
H	1.0	13.943911	11.005162	16.058643	37278.027	546185.2	-179929.77	239396.02
H	1.0	19.403084	1.3233985	18.40536	-134347.39	-72684.25	-78571.1	5.4541655e9
H	1.0	12.201745	18.136831	19.601746	-366804.38	-73576.34	317636.22	-370234.88
H	1.0	19.24805	9.768519	19.665985	172232.36	-372977.84	134829.02	1.9225851e8
H	1.0	22.384394	5.730215	24.033028	587477.75	-108775.7	552171.75	-6.537553e9
H	1.0	16.515749	21.553526	15.087994	-359881.84	-259568.3	109037.336	-46260.87
H	1.0	9.29921	17.306608	12.990162	-55085.016	60672.97	101506.016	-383170.06
H	1.0	1.339086	0.9382994	20.6933	-524175.6	550167.7	-453958.44	-1.9471402e6
H	1.0	9.977578	1.6413422	10.447702	-297210.88	-23395.357	278458.8	569443.9
H	1.0	20.426638	1.5908375	21.216103	-498261.5	103101.88	-137936.61	-4.1172202e8
H	1.0	15.083653	11.380823	5.765305	85445.83	-267661.2	383934.9	191510.69
H	1.0	11.473518	20.018442	20.234518	-356931.28	-598513.9	525749.7	-6.809604e9
H	1.0	4.5039015	9.991076	11.525595	86569.24	-757173.7	54878.42	-4.1830582e9
H	1.0	9.733582	17.588522	8.196599	-74284.87	-457422.44	-115978.55	3.5339453e8
H	1.0	12.5914	2.9699252	7.957602	-77749.27	228426.28	12793.067	233676.14
H	1.0	14.012625	11.013131	3.3049967	67223.02	-55436.484	92886.65	564696.06
H	1.0	6.628206	21.767195	7.3343863	310904.38	-768763.25	28730.834	-1.0973286e6
H	1.0	10.517194	8.978382	6.458596	-176225.52	-292043.0	284551.6	-8.1197834e9
H	1.0	7.560898	18.133072	23.780565	-94459.04	128571.445	48448.61	509254.0
H	1.0	15.274493	23.928204	19.368525	-377274.84	238037.56	-184483.78	-3.652015e9
H	1.0	7.377367	15.948188	14.677338	50220.637	-115080.95	-266478.66	1.9434177e9
H	1.0	18.612183	13.1074705	22.013226	69473.91	577794.1	104880.41	2.4078523e9
H	1.0	7.672311	5.945904	0.86505	-326618.16	287802.16	-137519.7	102329.96
H	1.0	4.7594576	11.757069	8.66796	482514.94	-248332.75	312898.3	-2.0095814e9
H	1.0	2.7081757	6.363782	22.674059	-326291.2	702589.44	-66906.87	-890145.0
H	1.0	7.862382	1.6784198	13.450174	-368618.78	-239761.17	177228.14	49607.61
H	1.0	20.381634	22.152863	16.644901	57100.227	-264879.72	5078.7236	2.1174557e9
H	1.0	21.340673	12.807032	19.445555	-173847.0	-112684.56	293657.75	1.4153452e6
H	1.0	12.147393	3.2320263	2.6600077	258478.72	-139764.73	-705361.75	-3.9960824e9
H	1.0	2.3229098	6.454113	5.543806	47684.184	575783.56	246386.92	-1.1041185e9
H	1.0	8.51755	3.4737778	16.125116	-51695.438	279800.75	190777.81	1.5617564e9
H	1.0	5.215549	1.9358491	14.910395	-109497.914	96690.79	181197.78	428667.7
H	1.0	19.186466	6.044037	4.0516963	-217789.08	366418.28	468465.34	-2.3341174e9
H	1.0	13.886444	8.557305	11.469858	59063.137	-50550.277	-338135.9	-540747.56
H	1.0	17.474964	3.9976323	16.515152	-191528.08	-170268.95	-384628.94	93393.19
H	1.0	13.010763	16.481949	18.885393	-142167.95	390589.56	609726.44	-962216.9
H	1.0	16.355154	15.9664955	7.730098	-180586.97	253490.08	185117.78	656371.7
H	1.0	10.681343	10.9703865	18.735823	-140288.9	700821.44	348412.9	-772531.9
H	1.0	4.7403326	19.40932	1.6027461	151894.81	363675.75	-446625.53	-1.1272332e6
H	1.0	8.616308	16.703121	18.420261	-138434.78	220286.28	-3227.6143	1.4347838e6
H	1.0	5.6952558	0.74401444	4.1628723	202357.58	-149554.75	45741.543	-6.752454e8
H	1.0	14.542208	1.4812174	21.448341	-351987.2	-354381.34	-3009.223	-11925.826
H	1.0	2.9387908	18.767033	16.040213	-172620.28	233503.34	52709.773	1.8099228e9
H	1.0	20.779678	5.330872	11.518266	-857355.94	420303.7	-154481.47	-1.270927e10
H	1.0	0.2703223	6.049682	8.830116	-219844.89	-392584.25	535500.3	-2.7413586e9
H	1.0	6.429193	8.41926	3.6704187	-130085.06	-252042.5	-329945.44	6.806667e8
H	1.0	19.359295	8.242011	18.264048	32909.363	194752.86	-97929.99	-110004.086
H	1.0	0.4509426	0.99642324	6.060657	134230.28	149656.73	-179031.62	2.120281e9
H	1.0	2.877731	13.07005	6.8371744	-300190.44	89316.57	434631.03	42854.766
H	1.0	20.985428	12.595723	0.9757997	-69216.71	-127169.33	-385112.28	1.0426107e9
H	1.0	6.338856	20.776852	10.523271	-168380.11	233808.33	333180.44	5.611191e9
H	1.0	11.022819	16.64387	19.026817	229038.62	-76092.93	309063.62	206507.98
H	1.0	11.883297	14.609622	9.559577	-108313.6	-171796.05	138910.03	454597.22
H	1.0	23.013533	19.551483	2.935632	-303091.88	95462.22	-68254.195	7.941273e8
H	1.0	16.390665	5.073839	8.366306	-387222.72	-113285.19	-288005.66	-4.4368115e8
H	1.0	16.079279	23.631792	11.357551	-354849.53	-63912.836	17143.941	-2.9135738e8
H	1.0	23.219702	3.0882542	15.908388	-357794.72	-51970.164	-204498.61	-2.8083697e9
H	1.0	9.28295	0.7421103	7.8589907	271099.66	379334.4	333043.3	-2.963337e8
H	1.0	8.280141	11.361357	2.8033514	5057.4927	-88991.18	300760.84	-7.372463e9
H	1.0	11.42138	0.69943607	1.2512479	-193113.89	204577.39	-338793.0	-19357.379
H	1.0	14.295459	23.178263	2.9941347	-158717.06	353539.6	250701.86	-414787.3
H	1.0	1.3426545	14.170081	23.67883	-67490.32	414968.16	-174755.58	2.3626642e9
H	1.0	10.79113	11.901471	20.526117	-161999.88	-14589.519	149576.16	120356.35
H	1.0	10.592106	14.894461	23.704243	95082.3	119904.05	123456.19	341188.6
H	1.0	18.411991	21.803663	6.1442113	98361.22	511706.5	151309.33	-475837.03
H	1.0	21.852165	17.36452	20.580471	-113305.55	-398199.34	-270905.94	-112753.37
H	1.0	11.589123	3.0355084	0.77618164	434742.4	348952.88	67414.734	-212453.64
H	1.0	22.891647	13.709013	11.907847	363004.0	163989.27	-532133.1	-7.1368975e9
H	1.0	6.749331	17.118818	11.365846	110155.06	-300850.56	-435285.88	-172155.89
H	1.0	5.6645627	21.085093	5.4996696	252904.14	484667.56	461039.56	-241.36752
H	1.0	16.407516	11.165264	14.48635	-135640.4	-204577.19	-143792.02	2.0174903e9
H	1.0	13.147919	16.921623	16.820429	579142.25	258671.72	193200.08	-515137.78
H	1.0	11.106253	16.5414	10.376671	-116214.05	5620.302	296481.0	-458350.5
H	1.0	22.352682	2.0503411	10.066327	-278420.84	51872.71	-241449.8	-2.500096e9
H	1.0	11.57018	16.145733	13.82722	-228441.89	-130046.73	-227089.22	1.5217868e9
H	1.0	13.069555	7.5039153	19.148758	201259.58	457418.84	31665.04	-4.704958e8
H	1.0	6.7531233	2.068639	6.4411473	287028.06	82646.23	202969.78	750862.44
H	1.0	16.277016	20.510418	10.242752	500429.53	7042.5337	18938.475	-1.7897827e9
H	1.0	3.6074595	17.101542	24.027845	271368.97	-44609.48	423105.53	1.9471721e9
H	1.0	20.43098	7.319252	4.813064	-368158.97	-610960.7	354780.28	-1.2090061e6
H	1.0	18.79957	1.2499279	11.410178	-70944.05	-219324.28	-150949.94	416807.56
H	1.0	4.141178	4.6074224	7.2666388	-527914.4	-33483.71	302146.56	5.495814e8
H	1.0	14.914643	16.721058	13.794797	-162958.53	-62606.324	329102.25	-129789.15
H	1.0	9.723083	2.3809342	0.09715118	3220.8953	549758.3	-212705.06	-3.5489016e9
H	1.0	19.53979	21.229807	18.704092	-45135.51	227814.67	41746.992	-93235.734
H	1.0	14.194393	10.210886	22.476158	-242741.64	-413666.75	-291304.62	13172.68
H	1.0	17.140093	11.5509405	11.50382	-138793.03	234714.16	167413.77	4.44385e9
H	1.0	0.5234023	4.9234905	10.722935	62869.875	200610.64	355797.62	190569.39
H	1.0	11.86792	5.249048	18.085552	164892.75	446174.56	33623.977	-435428.25
H	1.0	13.65093	21.678226	23.659313	-161779.14	-101111.07	-201909.66	2.058391e9
H	1.0	0.12733938	7.5300426	15.586303	130065.46	192534.3	-211727.17	1.8149294e9
H	1.0	23.447897	19.60457	5.588776	125576.13	182605.75	-89278.76	2.8361044e9
H	1.0	7.545538	13.502505	12.334133	232658.39	598072.25	545023.94	-8.653388e9
H	1.0	6.6384215	16.967426	18.948603	-205945.22	-132129.14	270398.44	1.5705788e9
H	1.0	23.823412	10.294006	5.532484	410564.53	-229914.36	160449.17	1.700361e9
H	1.0	16.708532	17.731194	4.0780134	-241783.03	-204437.3	-46567.168	8.677741e8
H	1.0	16.983871	17.363619	10.991026	134587.05	-74900.43	-73327.445	2.6605286e9
H	1.0	21.842737	23.287844	4.7168317	130968.17	105485.555	87800.69	-1.6732109e9
H	1.0	8.857309	14.783105	19.23377	36550.3	306005.47	83786.14	-1.1660436e6
H	1.0	8.023024	3.6606936	1.0521461	196407.95	51390.69	-107234.164	3.4720832e9
H	1.0	3.5704157	22.410099	0.46022704	45777.055	-56407.918	730004.7	-2.3469352e6
H	1.0	14.6382475	21.80507	16.098759	145958.25	116105.01	47351.156	2.907805e9
H	1.0	10.092549	10.347096	8.740921	313365.47	698688.7	-196592.62	-940839.5
H	1.0	9.707197	9.519026	17.32348	-99877.734	117993.766	-60217.164	707457.0
H	1.0	22.795187	20.976913	18.67724	-17926.904	-165524.8	-528656.9	-2.6183616e9
H	1.0	21.406363	3.35113	4.059701	-315117.0	-164446.97	-83611.914	4.5276943e9
H	1.0	0.40271094	7.06104	2.619729	-120061.6	31664.123	188245.34	8.011523e8
H	1.0	13.960915	11.774045	14.103234	-3730.5518	171520.06	-116685.664	-2.8533574e8
H	1.0	5.5419703	4.317803	2.3541486	215192.6	176027.89	46701.21	-2.840753e9
H	1.0	8.785793	0.068750165	10.49469	-311765.38	-206163.27	89303.83	-124960.18
H	1.0	7.8995485	7.9971566	20.191128	-81733.61	88205.73	-348748.06	-4.2748262e8
H	1.0	16.14765	0.36754444	3.0256855	-250661.83	-205831.34	255321.36	230125.23
H	1.0	23.093609	7.1388617	12.011571	-418198.94	173893.2	135233.4	-3.1307873e9
H	1.0	7.487663	18.887098	11.405053	42208.258	327483.66	-562472.9	-5.3346314e9
H	1.0	22.91203	23.42584	18.83457	173581.44	-700379.4	-107120.46	-3.5530496e9
H	1.0	16.912666	15.337463	12.138757	-195873.81	235247.47	196010.52	-2.6569667e9
H	1.0	6.0798044	6.445024	10.316717	-10959.817	-303412.16	-441532.38	-2.0747988e9
H	1.0	23.489128	11.840616	16.49055	161109.62	412187.22	-170089.58	2.4260336e8
H	1.0	2.2580495	7.2688766	18.479286	-55920.855	160432.47	726642.0	-2.8000453e9
H	1.0	16.19386	15.662805	22.4462	-216278.4	60697.832	-14033.337	477763.7
H	1.0	4.4389305	15.64692	18.140928	-230817.23	-254897.77	247929.8	-223252.56
H	1.0	10.416775	6.455755	4.917147	-79287.76	309575.03	-70902.78	338889.2
H	1.0	4.9739065	22.185093	1.7915195	-128734.31	369549.44	-254169.06	-1.0519001e9
H	1.0	14.013463	20.421602	13.638844	-148552.16	16396.57	162818.55	483004.06
H	1.0	15.379298	5.362314	0.6967435	-55186.695	-283088.6	-38962.664	5.34407e9
H	1.0	15.241191	1.9830837	6.1219997	-399590.03	-264716.3	-427910.47	-2.0774332e9
H	1.0	15.807055	0.762504	9.408656	-144024.5	33698.32	-488777.5	208719.2
H	1.0	16.815905	8.219372	21.587124	-5455.099	-145612.67	-161002.48	-2.1861285e8
H	1.0	22.310043	23.141241	6.614781	131269.98	351761.78	260070.36	2.1937408e6
H	1.0	12.179397	5.540649	8.9227915	229166.11	-295363.66	104228.32	231239.81
H	1.0	11.934763	6.591363	21.1161	93372.03	5143.6055	-121619.33	481979.5
H	1.0	19.104473	9.332111	22.7907	89592.07	89763.07	186726.3	478067.66
H	1.0	10.795292	18.498913	21.265482	-545984.9	465824.94	77418.94	-6.873307e9
H	1.0	19.486712	19.257502	1.5198159	66807.45	161070.69	-196032.78	733833.44
H	1.0	18.903662	13.683178	19.342705	678749.4	-168044.5	632836.75	-1.6973346e6
H	1.0	15.242209	8.363735	16.73938	-65852.0	127237.695	-119166.305	519038.72
H	1.0	16.089163	4.8007526	13.061012	190261.84	104943.5	42774.5	-1.7565603e9
H	1.0	12.157427	21.819824	14.399637	-156202.61	207044.47	-359707.22	-861650.75
H	1.0	17.20138	8.034617	4.284045	-352432.6	-248471.12	-346372.8	-151828.88
H	1.0	18.873995	22.298595	1.968343	-27537.52	-167995.62	-301067.44	1.5322318e9
H	1.0	0.7287069	15.754208	6.090732	95464.17	138251.77	185631.53	447695.66
H	1.0	12.130662	9.826382	8.534862	149655.14	-247340.75	-233905.84	233591.98
H	1.0	13.344033	7.384478	3.59742	-37931.4	-44744.945	-291035.3	385484.62
H	1.0	7.7696924	11.424717	21.164621	583867.3	-159379.39	-345667.06	-5.6157804e9
H	1.0	5.9750338	16.127676	17.038006	-261210.48	-145914.86	104157.51	2.4835418e9
H	1.0	9.989612	18.438356	23.228771	-379484.44	95625.734	-154531.8	1.804746e9
H	1.0	22.846514	9.739744	14.830535	61378.223	-23215.762	-298367.38	520106.9
H	1.0	7.4869757	24.04905	7.91598	133931.97	193061.81	-35895.727	-376239.38
H	1.0	20.281702	0.35989556	3.8217466	594439.1	-132325.42	493687.2	-4.5883203e9
H	1.0	19.769007	18.384594	21.432266	-87874.26	-57383.625	443452.4	-465989.28
H	1.0	8.679827	1.7248615	2.0959563	216450.47	145908.16	-92637.95	474092.12
H	1.0	14.385303	3.5226943	16.089996	-198406.11	103822.13	381413.6	5.917954e8
H	1.0	4.9077396	10.028668	14.280518	394248.25	-221065.78	57331.45	291532.44
H	1.0	8.790269	13.920626	0.6463614	644063.8	-91629.23	282013.28	-3.3038564e9
H	1.0	10.563442	7.8926816	3.1170678	269755.16	322910.12	47519.22	8.030458e8
H	1.0	17.809956	4.8459764	0.3416259	-271081.97	-118921.2	156776.11	-1.6661062e9
H	1.0	11.026567	21.788065	2.0283709	66641.54	-443559.9	-160417.14	2.1479128e8
H	1.0	12.13799	14.6640005	15.4897785	-214934.83	74354.25	-349351.7	8.6635616e8
H	1.0	7.3259525	4.63848	18.762613	49381.57	200404.69	50678.05	2.7373202e9
H	1.0	6.489822	9.722986	15.696119	-164676.61	155320.64	136097.39	2.1501926e9
H	1.0	16.147846	13.822718	20.883892	87466.15	-25016.3	259217.9	-3.1262513e9
H	1.0	13.35917	5.417115	2.401114	118430.14	-267932.75	-180606.27	1.5552319e9
H	1.0	10.749795	22.217085	24.046618	299754.28	-604122.75	37472.492	-6.162532e9
H	1.0	14.8400955	13.8700485	0.09052117	432918.4	240528.39	-3381.1748	-1247.5244
H	1.0	5.2896104	19.697817	4.165521	302017.2	96524.664	-617368.6	-1.2563819e6
H	1.0	9.020376	5.7033577	2.651311	398930.12	-479440.8	127653.984	-1.9870322e9
H	1.0	23.666883	21.65259	14.538332	56861.29	-26599.242	49663.277	3.4536468e9
H	1.0	2.357684	16.928528	1.6484075	-18451.566	12091.973	-242951.81	-160597.08
H	1.0	19.530018	11.829177	7.594275	-422841.94	-153176.31	-129362.53	-4.8110925e8
H	1.0	15.110623	16.314396	0.06761651	-26747.643	-127366.01	-101432.32	-346775.25
H	1.0	9.279692	13.4260025	3.6785798	289903.03	-201872.81	221537.39	311187.53
H	1.0	2.9220488	18.124907	21.746298	123526.48	291.76306	314031.12	1.6140635e9
H	1.0	19.659637	6.729589	12.536708	-32595.172	549921.9	-44762.824	-5.9531296e8
H	1.0	11.416379	16.830189	5.671181	-59285.195	-376506.03	-274164.72	47776.555
H	1.0	19.676483	23.568146	6.488871	444179.7	-39245.992	-435698.78	103309.93
H	1.0	8.127238	15.77665	20.756863	349912.12	21176.188	14802.215	1.8071986e9
H	1.0	16.820782	6.4094076	23.707972	-633524.94	67007.75	-179110.3	716259.3
H	1.0	8.701258	11.121782	5.284892	-224416.7	422200.16	-37037.465	-3.6780698e9
H	1.0	6.698162	2.9067895	17.590494	393224.62	443314.9	242241.78	-1.9898998e9
H	1.0	4.357095	6.9228077	6.668402	-445899.9	-168468.33	-265585.78	-672236.75
H	1.0	15.161086	7.412919	14.701751	-51137.07	-574817.56	-24721.611	-7.327338e8
H	1.0	1.0677379	13.589478	12.061707	336683.7	146847.22	377187.56	857225.7
H	1.0	20.904718	11.048384	23.749983	195977.89	-256531.11	49398.684	-67614.695
H	1.0	14.161086	1.4512628	11.124924	-15787.504	-36562.875	-164782.03	2.3851023e9
H	1.0	4.635415	18.798407	7.917006	-264603.28	-192461.31	-193277.84	-179327.72
H	1.0	9.109675	16.263807	10.097035	-490333.5	-411318.16	-34914.04	-1.8371987e9
H	1.0	2.3019812	20.858372	23.264585	150770.84	-77942.336	304259.0	303994.62
H	1.0	8.44395	9.423224	3.253858	61719.203	-523045.47	164431.88	1.0860551e6
H	1.0	22.833544	15.411292	24.045654	14541.85	-346230.72	183340.98	7.4310317e8
H	1.0	19.166035	1.0535225	5.256921	16775.426	-15913.093	-84100.68	-1.3860874e7
H	1.0	12.235485	8.428666	1.7724621	44631.76	-263563.88	-124058.03	388363.5
H	1.0	2.6769905	2.9920843	10.02167	145127.8	-429612.47	221315.97	-2.0229378e8
H	1.0	3.6644483	18.11549	11.850338	600523.56	23889.375	388416.38	-3.309847e9
H	1.0	8.625756	19.689959	7.1102285	-164746.28	-78080.52	-204798.36	6.1024045e8
H	1.0	18.834467	12.638758	12.751355	267692.25	-128918.09	-178522.23	-1.7539028e9
H	1.0	18.750036	17.582384	5.0923414	-10369.122	41200.15	38590.195	99889.08
H	1.0	6.7314506	20.987078	12.658939	112570.74	181750.22	94275.875	595372.8
H	1.0	3.7912817	7.79656	21.48026	59966.39	403596.0	-93796.69	8.519062e8
H	1.0	10.084052	4.9513893	8.510729	-417685.7	228026.5	-156766.83	-7.6190936e7
H	1.0	20.277061	9.021557	3.815243	374095.88	-430072.47	70646.914	-3.408931e9
H	1.0	3.4800575	14.291691	14.306952	104210.27	-186454.89	-136709.3	2.6346404e9
H	1.0	21.204556	1.3210206	6.723872	267680.44	13632.921	-167896.66	105699.56
H	1.0	5.6560187	5.446708	22.006533	591933.8	-136928.78	77488.17	-324061.6
H	1.0	19.9643	3.919321	13.021072	175504.2	-205361.62	-49463.95	2.2640914e9
H	1.0	0.7681094	10.538646	14.3187065	3502.5854	142542.2	178380.03	369667.4
H	1.0	20.571379	11.860422	4.0419893	-190357.08	32047.012	25930.258	284604.16
H	1.0	9.848694	1.0303226	14.472596	-98142.266	65265.426	-290240.6	1.8075092e9
H	1.0	12.654067	22.438496	18.724598	433426.38	-193617.55	321716.1	-4.3654646e9
H	1.0	6.7628217	10.240945	6.015968	199292.08	147218.08	-272149.1	-9.4578854e8
H	1.0	1.9368905	10.934387	7.0820336	18503.447	-235504.66	-342540.3	-1.3505815e6
H	1.0	4.8224654	22.731869	14.484567	-64774.63	47721.234	479104.3	19736.863
H	1.0	1.7141135	4.368606	19.18077	-96100.086	125714.43	870978.06	-1.332345e6
H	1.0	4.419801	5.5093565	3.8708365	-304541.56	165108.36	49641.266	1.4958975e9
H	1.0	3.7563753	19.397484	23.971573	104414.86	-648722.06	-247076.16	-5.387802e9
H	1.0	7.702545	13.381037	8.202193	-109781.56	89442.625	144768.69	-7696.043
H	1.0	16.932331	15.522057	15.158751	579890.7	-466189.84	-10713.7295	-3.8226404e9
H	1.0	20.818573	4.975172	8.387874	-387985.12	110011.086	321860.47	-53836.414
H	1.0	22.639479	17.826624	23.393387	-86786.45	290664.9	-406731.0	-233230.39
H	1.0	23.163986	8.555214	21.338722	140587.78	252350.94	-355735.66	84949.586
H	1.0	9.549849	6.509058	17.309935	148926.08	-2942.8013	586563.06	-2.5943908e9
H	1.0	4.911872	13.130974	2.1934285	-393951.84	-443722.0	-353521.62	-574172.5
H	1.0	22.964169	17.679998	5.0650477	-31534.508	504815.9	276622.9	-839294.44
H	1.0	18.3999	16.283915	7.8136225	-325009.16	404269.44	559.2703	-755103.2
H	1.0	20.94068	8.7523365	1.0084218	193125.03	410472.72	351611.97	-322899.1
H	1.0	5.035365	3.3510947	21.605679	250933.2	-242.47961	284214.72	1.2366196e9
H	1.0	3.2994576	9.24687	17.923681	199256.86	-809409.6	-61634.65	-526258.1
H	1.0	1.9050723	11.521222	23.7139	48177.176	-437989.3	-330739.6	-514902.7
H	1.0	3.162276	0.97955936	5.734535	24671.207	-287661.16	221360.25	276818.84
H	1.0	7.4970922	14.396773	4.8769298	18552.846	-132699.0	74968.234	-92757.0
H	1.0	22.727335	17.23011	1.1679734	-1006.663	363669.28	196369.12	1.5761292e9
H	1.0	1.8380982	12.050139	13.319462	359636.12	-392078.28	295018.62	-286109.0
H	1.0	1.5223975	23.077383	19.058601	339580.9	-119968.14	213327.02	170921.81
H	1.0	20.965065	11.824473	11.782379	-178537.28	-194380.66	431395.4	-514209.28
H	1.0	18.89927	8.516949	1.7080227	482868.7	-27403.648	138415.66	-22288.111
H	1.0	14.379177	20.161566	9.339234	33984.566	-125985.13	-436645.38	221785.88
H	1.0	7.560067	11.759687	19.093428	113816.8	-697704.4	179663.58	-1.03711794e6
H	1.0	10.062836	6.8886333	0.721325	-202680.73	120854.84	-30008.447	2.6947062e9
H	1.0	23.09736	4.433373	20.329062	-516777.5	119900.61	-562566.5	-1.0669027e10
H	1.0	18.288849	11.78738	20.249166	413175.8	74670.836	-168957.7	-6.0538844e9
H	1.0	2.3686218	20.471542	10.921324	-814017.2	-35489.684	201294.1	-1.1358719e6
H	1.0	4.836665	23.293634	22.321451	-223154.81	-110045.555	292303.97	1.485544e9
H	1.0	18.803982	21.18825	9.086379	34817.57	575812.44	-96006.98	-450408.1
H	1.0	6.7290707	18.966509	18.866514	101605.7	-98337.05	-95906.14	569782.25
H	1.0	2.2585	15.888108	16.342346	-431653.0	204058.73	-56746.277	32996.945
H	1.0	14.033562	22.138912	10.869638	8439.177	-99728.61	694056.3	-3.0653356e9
H	1.0	15.259788	17.728346	21.483793	-193269.14	-1087.9501	-239503.47	368761.72
H	1.0	10.625112	10.162583	4.6430306	-411021.88	135265.47	240114.16	-4.628264e7
H	1.0	23.58174	8.491218	0.68792176	-215915.48	-158455.1	269835.12	245605.2
H	1.0	3.3133698	19.770271	13.278947	298655.12	-196655.58	-225267.3	163474.2
H	1.0	6.556018	5.3345675	13.396399	370928.7	763581.9	-71592.07	-1.3100864e6
H	1.0	14.453885	0.22923377	0.55929404	195588.97	-89703.125	-137641.23	3.6554588e9
H	1.0	19.167717	6.185197	21.222244	-89511.875	550864.3	-175852.75	-6.5698176e9
H	1.0	20.077282	2.9636798	5.512892	11451.233	-35000.94	-283044.22	-2.307312e9
H	1.0	12.285524	21.589588	12.515684	-200203.72	223998.88	-101567.75	4.5027645e8
H	1.0	20.585562	3.527603	23.272581	-361178.38	285102.34	350538.12	-1.3738858e9
H	1.0	17.38512	23.047073	9.796095	-253824.47	-315821.56	-33564.51	-511716.0
H	1.0	23.3114	8.310452	13.526426	173744.5	-191791.64	147179.12	651658.94
H	1.0	2.3258853	1.0708243	3.7039063	77042.875	-335691.4	-447925.62	-1.02342874e9
H	1.0	6.118708	4.005656	6.959728	-16572.643	476698.3	471567.56	-5.469185e9
1000
Lattice="24.079964 24.079964 24.079964 0.0 0.0 0.0 0.0 0.0 0.0" Properties="Particle Type:S:1:Radius:R:1:Position:R:3:Velocity:R:3:Entropy:R:1" 
He	1.0	6.5823927	2.290324	2.9512067	-2000.1641	-628.5227	1770.2139	28.272575
He	1.0	2.3483179	16.128439	10.333625	-542.6761	-545.15546	-2809.814	3.4905555e8
He	1.0	2.2958367	3.4212422	7.180676	5894.0933	4467.8027	-2645.823	-442065.25
He	1.0	1.0534958	18.870579	19.531889	-480.48883	-3149.5857	-862.95776	15.000695
He	1.0	20.684864	10.569074	21.158125	116497.234	50353.016	124168.59	8.989844e8
He	1.0	4.64622	12.571555	21.701857	5191.4624	-8458.555	-340.44498	1.5571799e10
He	1.0	2.2218156	8.364732	14.230622	2555.3987	-2323.6528	-19933.146	6429.6514
He	1.0	16.56096	23.762793	7.3225894	4631.439	3482.0408	-3952.6716	-25.309635
He	1.0	7.4996095	21.36226	22.092464	-14552.438	-1352.0215	931.1309	31794.291
He	1.0	23.079302	1.2146333	16.519644	-1864.549	-2053.8616	-2389.2566	9.168585e8
He	1.0	6.027039	16.55584	6.880974	-684.03485	-4032.2937	-251.7737	2.875325e8
He	1.0	18.39179	22.240381	11.351345	198.44858	-174.73373	-14625.087	621871.44
He	1.0	16.6027	6.2945776	11.765222	13450.676	1544.842	-1776.7085	68403.56
He	1.0	15.512684	5.825575	10.162857	-5029.394	-7733.6885	-14944.74	2.310916e8
He	1.0	2.8458927	14.192802	11.0291195	-1502.4434	-3617.84	-31.004536	110.94155
He	1.0	1.882015	11.338422	1.9159698	-2048.3726	5950.222	6046.3105	-687983.56
He	1.0	8.293729	5.176021	9.628297	4890.285	308.35718	-3712.5637	194.71867
He	1.0	11.1426935	2.781772	21.397259	14990.65	4686.037	539.54346	250018.52
He	1.0	23.277548	16.994875	15.782137	-5037.3003	-230.0783	-1041.4133	-276054.9
He	1.0	24.07954	10.35096	11.917089	8438.722	-2817.2375	-1562.6129	-450812.03
He	1.0	14.306667	4.427656	9.370482	-2000.1985	-4587.232	83.29828	186.78171
He	1.0	9.052363	20.448746	3.1046264	-7521.2896	9236.299	-1669.7671	-1.7207744e6
He	1.0	7.3617725	20.145576	5.0830855	-71611.88	-6763.5376	-25611.566	423300.66
He	1.0	17.88587	14.972155	20.530035	49879.49	35838.98	68786.484	8.433612e9
He	1.0	8.533092	3.3906958	11.91919	4061.097	4126.181	2325.0098	51.55544
He	1.0	0.5608574	9.633689	3.2634048	-725.13007	52.22823	-877.231	302069.8
He	1.0	8.686912	20.430067	0.5753789	3846.3105	1640.0099	-106.14711	307357.22
He	1.0	18.77184	17.508947	0.7003437	33482.09	49045.707	-55447.42	3.803858e9
He	1.0	22.266504	22.80056	16.044886	-21049.121	19981.197	-8540.46	1.05797914e9
He	1.0	20.421173	13.550636	6.8847075	556.77496	4854.1045	6942.225	514558.97
He	1.0	20.618189	7.653462	10.987302	8138.365	19226.416	-35151.152	6.4290166e9
He	1.0	21.209984	7.330033	18.78843	91275.516	-49220.84	24263.51	2.323202e9
He	1.0	17.289598	13.618312	10.987594	-11634.765	-1762.3295	2429.0808	-193.27588
He	1.0	3.8251579	11.203621	1.4104185	2297.379	-4191.032	-800.94794	1.2454682e6
He	1.0	15.590204	18.633701	10.015928	6706.988	-1134.4119	2685.2542	3.3879688e9
He	1.0	12.263861	7.871689	14.603716	-7019.167	-2150.521	-10755.616	38640.758
He	1.0	9.084641	16.16777	4.428379	77738.99	-34817.78	14793.118	1.4133883e9
He	1.0	2.4407258	22.346457	3.0925882	-5046.5166	1783.142	2107.2378	3010.068
He	1.0	4.892166	18.32451	22.710625	-1977.2305	-3061.181	1523.6299	99513.23
He	1.0	14.327102	4.8699155	14.054846	-2159.7393	1713.082	-5016.4487	8.073266e8
He	1.0	15.821496	4.1601896	22.19829	-29835.64	-59376.562	10339.578	1.2141042e9
He	1.0	15.48106	21.642778	18.593206	37695.934	15964.329	-24477.695	1.2362798e6
He	1.0	18.482676	21.223751	14.967335	2895.0571	-3925.639	2265.7488	214072.14
He	1.0	11.543159	7.744579	8.086289	-9998.295	2633.2659	3526.1482	-1.4184832e6
He	1.0	13.117182	23.558136	22.242529	-701.1002	3464.4246	1920.21	-142371.03
He	1.0	15.697913	18.151634	5.7792635	-4880.5576	2261.5872	4801.7046	666664.56
He	1.0	6.691253	23.63948	17.012697	-6975.1953	979.7191	-3743.4841	-631204.25
He	1.0	8.593279	22.630037	11.83845	9146.552	1715.3048	-1688.2559	4.074527e9
He	1.0	21.918074	19.055162	7.6771193	972.29144	1300.4276	-3565.5664	130432.195
He	1.0	14.746871	6.146746	23.013945	-2813.2988	-6299.871	5023.6416	29580.836
He	1.0	17.336538	8.629006	17.896378	-1533.1268	3597.9258	4659.312	-90190.805
He	1.0	11.705126	15.980805	3.8124566	1286.2268	6225.57	3128.1567	6.1212584e7
He	1.0	12.378786	19.921696	8.515865	3455.7222	7440.9683	-3403.6848	-935646.75
He	1.0	4.2310395	1.9109968	3.7351482	-2308.178	788.80206	-9723.826	867905.75
He	1.0	6.4314647	7.631399	17.9067	-31.89883	4027.8235	-3405.401	-64.369
He	1.0	5.765395	3.101084	0.7542758	25959.695	-124747.266	-133813.88	1.8603346e9
He	1.0	14.904898	4.83767	6.2228723	-2299.1038	-5645.5273	-3032.6438	48.40474
He	1.0	15.509588	21.882456	12.655041	-4286.1626	-14342.932	-3351.1616	3.4669923e8
He	1.0	18.071863	5.172571	9.641617	-6621.527	452.76523	2847.536	-376812.47
He	1.0	23.596487	18.75881	21.80947	2222.5442	7571.501	-3943.854	2.8910576e8
He	1.0	13.370489	19.271885	4.3173833	-8130.7583	1779.2648	-8838.872	-1.3673599e6
He	1.0	3.2667375	21.030582	1.8360223	-9509.57	-1906.0654	-351.9787	1.6962125e9
He	1.0	21.952095	0.0033124953	1.8437554	-2222.1743	-6068.764	-2735.9705	-21488.469
He	1.0	12.081306	10.227749	16.402927	-3350.105	-1991.8079	-6265.9214	7493.668
He	1.0	17.613123	22.989014	16.317797	-6717.815	-2096.174	1006.03326	76.33134
He	1.0	5.5360026	9.746061	23.923622	-12252.107	5252.8726	15918.756	49513.93
He	1.0	18.46877	10.04369	3.4705098	-4154.0835	-7340.838	-962.0813	-109.77589
He	1.0	22.430351	14.285484	17.394333	-7375.087	-877.35364	-1707.342	271.41275
He	1.0	3.2828393	16.761503	6.0009375	-14205.767	45826.594	10314.441	1.4047722e6
He	1.0	10.807393	17.994122	3.2969093	4219.75	1367.9236	-6180.6646	118532.734
He	1.0	16.801647	20.387838	0.7730099	7755.254	3974.2563	393.7819	-114.505035
He	1.0	4.1855836	21.960356	9.502866	1663.6711	-2274.3496	-1070.455	44.958344
He	1.0	22.648874	6.210195	2.2307348	42836.277	78831.484	16109.284	639168.44
He	1.0	22.877274	5.042935	6.8464265	-56233.625	1526.8627	8913.104	249216.56
He	1.0	6.626511	7.9883003	8.122338	-335.37732	7396.667	7971.253	-937884.06
He	1.0	13.97232	17.846148	11.395712	466.73544	-4690.2646	1121.3945	4.9766685e6
He	1.0	2.3494234	19.481424	6.9363666	214.56822	-8395.466	8056.5317	323.45978
He	1.0	2.5191967	23.453594	17.115896	893.3065	20519.777	12220.493	551482.75
He	1.0	23.878471	21.025692	10.518155	5440.027	5986.4844	-5623.9634	7.3120886e9
He	1.0	4.5777397	24.078737	10.696978	-1244.4454	-416.62027	-7905.404	5.554157
He	1.0	9.802043	5.192507	12.69489	4077.8638	6241.9272	335.03928	1088.205
He	1.0	23.066519	1.5694112	21.371996	2716.9758	7189.435	956.37384	1.9125984e9
He	1.0	13.568049	21.250319	7.0007577	-4230.68	-9072.85	-2440.0706	-5.8262377
He	1.0	2.2365801	3.0745497	21.088514	8467.183	2707.515	-738.9293	-449449.56
He	1.0	17.575146	19.0606	21.5967	26677.21	-26107.918	-29569.953	445474.56
He	1.0	4.3944497	8.659735	8.837543	791.91614	168.81073	7475.4717	-111.41702
He	1.0	16.769073	22.914003	1.5309285	9608.877	55159.734	-49228.832	5.788684e8
He	1.0	9.936257	4.2922044	17.650417	-56559.09	-27514.592	-14333.091	626720.3
He	1.0	18.630247	7.190703	5.651737	-22169.805	43911.62	45666.676	599008.2
He	1.0	15.030212	1.8996868	18.969078	-3444.8438	9892.943	-2306.2583	885390.9
He	1.0	16.270184	10.097786	16.288248	-383.2604	1421.8121	1477.7456	9.288014e7
He	1.0	0.9857965	4.5142365	14.841378	-12102.593	109.52285	-10945.067	1.7582381e9
He	1.0	4.2145944	22.968367	3.8056424	3101.6692	6826.3716	-3508.068	4.6856966e8
He	1.0	20.135696	20.79246	6.7248473	41408.434	-19815.988	11468.041	20203.303
He	1.0	23.747381	12.852676	23.514961	-2763.4172	1015.8599	2748.3152	5.8863136e7
He	1.0	9.178431	14.810174	7.8164635	-3705.7866	-4794.3906	7858.7456	96.89711
He	1.0	22.152607	4.382589	10.097997	72824.04	-33930.086	-69458.05	2.3904072e6
He	1.0	11.732672	23.999529	15.966423	-4636.5483	-4540.4946	8962.134	-163.06894
He	1.0	9.298589	22.057144	22.6034	-5690.4604	-3689.5203	-11317.833	9.482285e8
He	1.0	5.4959884	3.7934406	15.6939535	5336.8906	-1062.7391	-5592.3066	8.433169e7
He	1.0	18.103365	23.284273	18.31252	3212.1104	581.694	1182.1779	-9.585901
He	1.0	6.679018	14.851845	8.978025	2861.459	-3839.2402	-3697.1416	737653.1
He	1.0	19.758389	10.79444	10.263486	-12221.405	2934.6692	1444.0626	6.1569216e8
He	1.0	11.244019	23.322882	12.072637	4414.7715	892.1685	-4009.1145	197316.22
He	1.0	16.61997	19.63819	4.758366	3294.3643	6850.409	1092.0132	1.555348e9
He	1.0	1.6254138	14.912616	13.6945	-2997.64	10653.022	26650.926	4.5592156e9
He	1.0	12.608269	2.979253	18.472296	4508.8257	-7323.316	-1908.1631	-159.20236
He	1.0	10.812267	0.12206164	22.622643	8645.221	-2110.6465	-5072.7017	-813096.94
He	1.0	20.951086	14.508147	10.362555	177.04462	105.081635	2465.1143	1.4541654e8
He	1.0	4.803343	0.02091391	7.136098	-7655.203	2240.0283	3881.2983	-2.5715608e6
He	1.0	5.5830746	8.2381115	5.606275	531.2478	-377.64932	-2009.3219	550728.5
He	1.0	20.20283	2.7761657	1.1244342	-3365.8025	4554.863	-6575.929	148195.02
He	1.0	9.052059	13.12435	20.347641	-2547.1643	-8525.954	-25744.326	1.899627e9
He	1.0	9.380914	10.004035	20.96896	-2265.318	-3506.3281	-526.4937	1.5816988e6
He	1.0	11.538554	20.307755	15.9831	-547.8674	-5213.4785	1055.2496	670475.5
He	1.0	8.523941	0.37943643	0.19506316	1490.1654	-8514.0205	540.5685	-557578.75
He	1.0	1.6168098	2.1161907	18.989698	3746.1326	5645.979	-3475.201	2.1853676e9
He	1.0	8.162431	11.1921015	7.5087423	-1830.6041	-1360.3201	8131.66	474546.44
He	1.0	7.953233	6.8814416	5.945908	4392.153	-2606.8784	-690.0915	-24.285713
He	1.0	18.94524	17.225233	16.125366	-793.66266	5322.191	2471.0283	3784.944
He	1.0	1.7340441	23.735153	10.647071	-3033.5222	-3685.9585	7103.6206	-582969.1
He	1.0	12.264112	2.0184417	11.872562	1463.1414	-1330.5234	-1898.6478	125.86384
He	1.0	17.28493	22.750431	12.932376	-2231.4805	15598.082	5276.457	2.4485237e8
He	1.0	21.950535	21.177395	23.025772	2335.2576	3456.7305	4145.2285	-21.827255
He	1.0	19.952383	4.5300965	17.394602	-560.15936	4999.2046	817.1098	351231.78
He	1.0	9.150348	2.7422726	21.532963	1601.9227	1757.9153	710.62195	21992.82
He	1.0	1.1514024	1.8417685	1.0452746	-882.5694	-6575.8354	4430.7827	-430318.16
He	1.0	4.6935153	21.257643	12.048047	4640.1016	-943.0817	-911.3986	484474.7
He	1.0	19.481186	0.31561637	15.904159	-151.51215	6991.492	6619.3105	3.8626724e9
He	1.0	3.113312	4.5497875	13.12703	-1089.2303	-1216.3076	-6717.289	273410.7
He	1.0	20.31396	18.92961	10.667386	427.3069	-1150.753	1645.8658	1.6485156e6
He	1.0	8.962659	4.0435853	14.10031	-1708.0966	2724.8574	862.2331	680.5679
He	1.0	8.6785965	11.374105	0.40863395	-19645.215	3817.9446	-2829.5007	290501.03
He	1.0	1.3899893	14.841411	18.609625	3077.519	29341.357	12377.066	4.433642e6
He	1.0	4.696811	17.88015	15.197296	-29.636267	-3890.1443	-1804.5956	1.7435194e6
He	1.0	14.563914	12.974167	10.553726	-3536.2725	4590.3984	939.88336	1.3390516e9
He	1.0	15.004472	17.268719	1.9072247	-1823.2782	7659.087	2874.9675	3.244273e7
He	1.0	2.2175746	7.0044594	10.2265215	-15049.909	22658.383	-25890.967	231158.55
He	1.0	23.48313	2.941681	19.0124	6639.0493	2928.4727	2142.1309	-64255.418
He	1.0	22.81499	1.7581857	0.9206637	-1814.5189	-5293.9717	-5614.14	-372043.1
He	1.0	19.385323	3.3094103	8.50097	-707.4633	-1978.1921	-3232.3472	452901.22
He	1.0	6.9745116	14.1732025	23.165161	2982.0588	1332.9774	3150.9016	1.1066975e6
He	1.0	13.416337	0.2487989	19.958078	-4511.5728	1345.1461	-6171.691	147313.31
He	1.0	10.391426	12.365112	2.2276125	-2285.502	4548.2417	850.1416	184145.42
He	1.0	21.772297	17.82551	18.443993	3271.155	-8508.937	-921.01483	2.0030071e6
He	1.0	3.2503092	7.857376	3.8643456	8585.532	2684.4348	-4018.1787	1.0437607e9
He	1.0	15.676954	14.698109	6.241399	-8546.42	-15749.214	-20080.373	351543.44
He	1.0	19.450686	3.4068055	10.618308	-5037.93	765.4385	-237.03383	-4.950391
He	1.0	17.366701	14.325852	4.7394576	-2593.411	4518.756	2573.0776	8.989255e6
He	1.0	13.363652	18.909294	21.162203	3271.4268	4795.7075	384.63528	5.9366624e7
He	1.0	18.722336	10.119701	13.103174	-8239.332	-1546.3812	-3012.1514	-28.608606
He	1.0	9.762663	12.437561	6.7240133	17086.758	22903.715	26099.793	2.5323927e9
He	1.0	14.053579	16.227571	4.282841	5066.867	-6707.595	-1386.8129	-87802.73
He	1.0	7.843618	1.1725358	17.281164	-2766.344	-1267.2756	1240.0371	458269.97
He	1.0	5.8735766	12.352962	12.484565	3249.1929	-13011.731	-41584.98	27464.691
He	1.0	22.985466	0.7453388	14.546729	3254.1868	18210.957	9991.467	1.5313468e6
He	1.0	10.532923	22.005732	9.699607	255.04402	4475.5493	-6625.2803	-264359.7
He	1.0	8.114712	18.648798	20.660515	3177.834	-435.56998	3538.3474	-4.822141
He	1.0	12.69847	9.194843	18.181763	-895.87524	6525.683	1258.679	42407.67
He	1.0	4.2172284	6.587729	9.655482	803.5517	-10750.31	-570.07166	1.086614e9
He	1.0	22.188879	15.404384	19.347158	-1349.763	6907.761	3907.591	51.926754
He	1.0	17.906488	11.4527	8.885873	-2223.237	4386.69	-2454.3835	1.0166443e6
He	1.0	7.6703644	9.907292	17.993862	-3029.3784	-88.18893	-5837.1465	1.032527e10
He	1.0	4.2335305	2.2701416	7.177968	765.3065	8059.901	9072.692	-104.753494
He	1.0	14.564201	6.693303	8.4216175	1547.9033	4260.7236	-5586.246	-316235.25
He	1.0	2.8007896	4.667109	8.946389	-2262.705	4935.5483	983.1802	3.742102e7
He	1.0	0.8333828	7.7640367	4.8358154	-45966.09	45797.39	-31661.56	471131.5
He	1.0	11.305409	13.24245	12.550949	6406.404	-4814.882	3924.5422	281383.12
He	1.0	22.195347	20.100277	15.143993	921.8247	139.57257	-2928.8923	247.78114
He	1.0	9.656629	14.517668	16.361225	-549.8661	-1908.7819	-1225.0256	2.407715e9
He	1.0	4.3231783	14.228275	9.327147	8291.052	4550.107	-1943.8922	-208.63191
He	1.0	10.854581	17.877033	0.9321969	-16802.078	2295.6267	-3023.1575	180300.97
He	1.0	14.241235	22.43785	20.851791	5269.6553	-2367.4866	-3174.321	2.3422785e6
He	1.0	10.188751	22.32416	13.537044	-8369.109	5015.407	908.5295	-216.6134
He	1.0	20.962349	16.094711	22.59224	-150.51988	6043.755	-3334.1697	197931.92
He	1.0	9.915341	19.084381	4.7751884	-2867.5376	-15.724964	-1886.5101	478916.06
He	1.0	22.703547	3.2821388	22.917868	-3871.949	-650.3753	-3919.8735	4.9931325e9
He	1.0	13.295297	13.680224	12.542672	-1864.4276	826.2615	490.8592	614689.7
He	1.0	12.8024435	18.151999	1.2581308	13216.392	2876.0466	2583.441	29355.885
He	1.0	9.469693	16.124971	15.091042	9215.006	-11339.821	10200.65	-2.9939145e6
He	1.0	13.416388	4.281941	4.7941127	369.88556	107.56682	-13098.56	-1.1214375e6
He	1.0	13.105307	14.277191	3.9841328	-4046.4453	1186.453	5676.0405	-164884.5
He	1.0	21.053448	9.639335	18.228926	40893.332	35551.117	-2661.3687	1.04203806e6
He	1.0	4.5686045	7.996694	19.324398	-27.595652	-786.8702	-6874.26	-90357.91
He	1.0	22.671339	8.089035	5.1089478	511.48502	-672.21747	-902.90106	99.768974
He	1.0	17.62099	3.7221422	14.181583	4067.3752	2957.0906	679.07654	-86207.76
He	1.0	3.9817169	1.8859265	18.315895	-568.0402	-5886.1978	-5641.6294	391.71414
He	1.0	9.516303	20.689812	11.132019	3163.3845	-4719.921	-4197.0483	-91.26813
He	1.0	0.17738609	15.368204	16.8938	-2373.199	4296.792	-4613.006	97877.055
He	1.0	21.911743	9.662026	6.1510596	-4796.9346	-1501.4498	-687.1455	3.8228836e9
He	1.0	1.741942	14.356665	20.896698	2837.4077	-2590.4514	1079.0934	39.95771
He	1.0	2.4934351	18.037832	9.495067	71249.35	18469.465	-81970.68	863534.9
He	1.0	17.159409	1.7944921	7.430179	280.22964	8706.146	4755.35	-188.43028
He	1.0	8.103033	16.695286	7.314568	4959.1426	14352.989	3546.5051	429574.34
He	1.0	22.38966	9.975148	3.3505664	-2303.5076	1217.7272	1404.5737	669542.4
He	1.0	22.18512	15.385897	13.932458	4645.699	2382.7131	-5939.61	-66.21338
He	1.0	21.441435	13.633747	15.666069	3335.0078	3585.8381	-1944.4486	-114588.59
He	1.0	10.085873	12.458143	9.55837	7196.173	-3840.4497	-2707.9685	586696.94
He	1.0	16.898628	14.440154	0.1553751	58931.082	27784.623	737.0725	5.893659e8
He	1.0	6.6893854	1.9649384	8.618194	-1858.9948	-2748.167	31917.059	5577.689
He	1.0	7.8006625	9.252775	10.308303	1470.069	7942.4995	-208.57124	-308234.84
He	1.0	9.297098	16.927622	22.064043	12757.693	3677.1606	8676.081	820743.6
He	1.0	10.542383	2.0002074	3.223898	-5293.842	1312.156	-1350.1682	-21737.09
He	1.0	15.820737	17.318642	19.04135	-7133.3154	4721.8438	5719.2593	-405256.03
He	1.0	20.50509	0.7139147	0.49688402	8057.4927	1143.6361	2847.554	-667911.9
He	1.0	4.5973787	15.353422	7.5942836	4072.3308	5456.224	15476.923	1.4481403e8
He	1.0	13.71445	8.783765	9.475317	385.5208	1142.7917	-1936.1699	2.7251569e9
He	1.0	6.875193	23.956247	12.212131	18.064125	6155.6064	4069.791	598873.1
He	1.0	3.370429	0.94389665	15.87856	4568.9995	-626.737	-1194.8953	174561.89
He	1.0	11.227625	1.2102576	5.2505817	-12080.181	-11034.815	-2694.834	1.5694605e8
He	1.0	2.0580566	8.449654	16.215923	6357.9546	707.85535	19746.543	6.734478e8
He	1.0	5.0073285	2.6198654	10.362484	-1623.8804	-12250.044	7974.745	9.255521e8
He	1.0	17.429998	2.5877442	12.433059	3742.5134	-651.86786	3170.2832	108.209625
He	1.0	10.594872	18.167023	14.643773	1379.752	-1794.6504	-5481.6235	595859.7
He	1.0	0.74241805	22.844364	6.2267766	15880.159	10222.197	5775.5703	5.5381873e9
He	1.0	4.100972	0.07716267	1.358207	-353.96518	2315.9783	-135.30286	3.4143715e8
He	1.0	9.473048	19.81075	15.830411	2209.934	-4909.7114	-3835.606	2.6866422e7
He	1.0	9.187343	13.485395	22.299543	-4360.516	3186.237	28520.777	7.011841e8
He	1.0	1.6779041	18.551317	5.2967587	1629.0928	-3745.08	-12369.954	-313.1372
He	1.0	2.739378	11.296639	8.850197	4507.7266	-3476.1816	17054.69	1.3662949e6
He	1.0	24.011375	14.563986	20.072521	1300.8997	-4478.866	-1886.4606	65.191124
He	1.0	2.6389468	10.1887665	15.0482235	-15262.437	15085.981	-19953.572	1.2974887e8
He	1.0	13.13932	11.360383	6.40753	-11206.096	-964.8522	-2656.8015	4.446513e8
He	1.0	14.714171	22.077074	1.2570678	5242.577	-4886.7334	-1440.5847	2.0923215e9
He	1.0	22.36235	5.636442	4.295056	-3031.8423	958.3056	7854.6143	-657866.1
He	1.0	2.0648148	9.34942	21.654392	-3010.0266	-5453.4136	1970.2168	1564.869
He	1.0	10.790597	9.009195	23.950745	-2001.9839	-62852.863	-19892.725	1.6210207e9
He	1.0	12.51714	18.626944	10.269238	-3254.511	1443.8145	159.77304	1981.9956
He	1.0	15.697639	21.313868	6.2359185	-5160.6724	-7388.1143	-1576.7839	1.7334158e9
He	1.0	0.36071512	9.660245	16.706118	3492.3484	-903.1576	3411.917	410392.22
He	1.0	7.3306026	2.9590333	10.227621	-127.972435	-521.24084	3063.182	653.14856
He	1.0	3.534223	3.5020485	17.224903	-2943.101	3565.6504	3857.9248	-58.8981
He	1.0	21.287607	20.571386	9.494525	648.9479	-4147.0366	4134.198	4.8865936e8
He	1.0	8.910964	7.583409	8.420631	-927.91907	-6.202496	4963.563	-265340.06
He	1.0	12.630459	20.045912	2.6056583	-3297.598	-5116.477	1899.5483	-156102.31
He	1.0	5.9375267	7.837486	14.494991	-1482.943	-1739.9723	5329.088	448141.7
He	1.0	7.8761578	21.37077	19.204496	-1913.3757	-2199.8228	3359.4187	690646.6
He	1.0	17.488482	8.302531	23.838734	-4362.059	-6484.138	8829.864	410610.72
He	1.0	10.428737	5.2388687	22.271074	-44965.89	-29797.633	33140.33	279164.53
He	1.0	17.660408	4.8516393	19.660454	-1790.6935	3562.8972	-2004.0287	745352.3
He	1.0	6.019382	8.321258	12.543244	-2665.8093	-5481.31	7454.3516	95.0558
He	1.0	6.709362	0.33821952	22.7563	234.93652	-4161.422	4018.6074	26.312862
He	1.0	12.582473	15.082406	6.1360936	-1775.8778	-5389.8965	-2288.553	26.089472
He	1.0	19.217777	20.331923	21.267166	-5043.609	-2019.263	2654.3123	1691.4736
He	1.0	19.954498	6.5417385	15.467042	1053.2196	308.31033	5099.8335	109.21679
He	1.0	24.035154	21.221558	7.381179	12997.827	-8560.314	40590.31	485066.8
He	1.0	12.074652	3.4471092	10.461409	-2203.2073	-3644.851	-943.0489	-14.860327
He	1.0	19.331078	0.031942014	19.947237	-2758.6975	-53082.457	66174.76	7.0675104e8
He	1.0	5.375864	18.25846	17.318594	5841.5024	-4615.431	9364.775	1.0988839e7
He	1.0	12.0429535	13.598379	7.449659	950.9195	-1717.3026	-4792.473	41.38268
He	1.0	21.43651	20.006754	21.469795	19336.26	-17815.293	84412.08	373487.3
He	1.0	8.72478	8.049275	12.490089	-1093.578	4278.621	-3086.4722	154670.5
He	1.0	2.2345662	13.036219	15.854804	4322.2686	3351.096	923.08234	-188322.56
He	1.0	5.560733	17.481123	5.1716943	-6170.605	4484.249	-4496.391	5.2972826e8
He	1.0	21.054598	15.720588	7.538397	-2913.8206	3996.0278	2275.5679	-57.33835
He	1.0	17.006668	6.734896	18.814413	-3711.5469	4477.487	-30.709114	475017.47
He	1.0	4.276056	15.880663	1.6808443	-4298.2393	6934.0293	4190.284	-314753.5
He	1.0	7.92196	3.8265529	3.6302326	-5246.496	-5661.7925	-540.12244	-141.04208
He	1.0	10.956491	3.0283506	6.576195	-4235.5854	-241.962	8874.515	-206.31
He	1.0	19.502289	7.255995	23.53481	4521.6445	-1370.9071	-2672.0112	-44.95907
He	1.0	15.446176	14.687615	13.662502	-3070.0728	3917.372	2803.2195	-139219.0
He	1.0	9.792843	23.317923	3.5693035	-6239.7534	-485.96048	-563.5375	8.2902464e8
He	1.0	1.5089843	7.5796933	20.907206	19645.125	-2375.7788	17660.256	2.3327052e7
He	1.0	7.8099155	6.7937083	21.933249	-1651.4037	5147.591	2065.6616	-403617.3
He	1.0	17.523169	10.845701	6.963392	-821.6894	8481.606	3828.7136	224698.75
He	1.0	22.7721	3.3085349	11.692057	8.379238	6975.233	-3500.142	-50.783783
He	1.0	14.451933	8.868713	13.539352	-964.5864	-1254.612	5024.278	8.16768e7
He	1.0	3.808766	10.238204	22.993862	3094.5935	62.51734	-1869.1174	697274.7
He	1.0	20.537207	13.751115	13.221433	21416.094	14339.377	-1743.7202	368889.4
He	1.0	5.159316	3.4335337	4.6411505	1184.4092	4303.718	-3299.7864	1.23539336e8
He	1.0	16.607952	11.563334	18.756481	-924.9346	-1403.6625	-711.3141	39.89863
He	1.0	20.333055	14.721842	0.2671382	-7467.4146	2981.1433	4600.779	5.58334e9
He	1.0	11.795969	4.746725	12.279894	1027.9652	-1442.4503	1676.6543	1.6514225e9
He	1.0	12.050844	11.857105	14.777639	-3758.74	-3772.1272	-9499.155	5.775612e8
He	1.0	0.16512738	13.274441	13.8887205	-14482.567	3430.5793	18746.256	207666.92
He	1.0	0.5731566	23.668985	15.971815	-745.8413	-2871.1504	4246.7124	-24.242613
He	1.0	11.769361	23.96841	3.3316083	-2144.5786	-9507.61	-2749.8818	101862.18
He	1.0	11.535184	10.682553	2.6656008	4000.399	1558.3724	-5948.8345	-535127.1
He	1.0	12.720515	9.922671	20.289808	4657.1245	5232.9634	5846.578	-258313.42
He	1.0	19.152586	13.449148	2.2806754	5888.544	3733.6423	-20558.596	1.930995e7
He	1.0	14.960313	8.33037	22.69823	-35600.066	3522.155	25187.96	1.3934018e10
He	1.0	7.2344165	6.7759953	12.02973	4333.2153	8665.926	-3424.2712	2.9413028e9
He	1.0	6.069808	7.7255187	0.19882816	3944.4873	11290.578	10695.285	105749.33
He	1.0	21.479078	12.052772	7.999612	-4896.5894	-4373.3584	463.5642	2143.7686
He	1.0	23.383451	21.262157	16.61457	14975.233	-28271.938	13159.287	367999.0
He	1.0	20.755579	9.734297	8.9007635	8340.965	-7192.626	-15200.289	35808.66
He	1.0	5.2537427	8.876612	1.699627	-1103.6084	-3929.002	-2489.4834	-48.368706
He	1.0	18.802338	14.104487	16.821434	3162.935	-1595.6002	180.81316	484081.9
He	1.0	9.435868	8.19957	22.137785	85271.22	-19055.234	-60730.168	222030.95
He	1.0	15.773822	12.476804	12.872282	2262.3362	1821.2035	5187.8794	2.3102925e9
He	1.0	12.503215	18.442352	23.175722	-4657.1465	698.00507	-3280.0503	66524.87
He	1.0	5.4273977	16.120836	3.6599193	-2080.6094	777.7297	7220.765	1.2293253e9
He	1.0	22.2267	12.571804	5.8653626	70.85794	-2813.858	12814.058	-236095.45
He	1.0	5.620111	3.082464	19.63358	4230.072	-2712.0085	1817.3004	-309498.38
He	1.0	12.905053	1.6505708	0.11577088	-67873.17	66768.02	-8663.168	2.8557358e9
He	1.0	15.911335	0.071216226	17.286156	2783.7007	990.32	-6631.162	1.6281572e9
He	1.0	1.0395204	21.094637	4.1057796	-748.55927	-49.469097	2872.312	314125.8
He	1.0	21.610447	18.280258	13.858894	2581.6433	5397.2285	-4409.275	825885.56
He	1.0	19.099756	0.20681217	8.849441	-2647.015	410.49084	-7588.7812	2.681925e9
He	1.0	11.875437	4.7460074	23.720732	3601.5513	12585.038	-14457.214	1.8391558e9
He	1.0	10.31144	6.4135175	19.848722	-2293.7158	-295.68088	8433.902	374877.28
He	1.0	5.9455147	6.3739915	2.5949519	-3509.1843	-1107.4202	2963.2205	800211.25
He	1.0	6.6919785	22.59095	4.633442	1999.9205	2332.4353	8815.04	1136.8125
He	1.0	2.8861237	8.829149	10.674056	6241.497	13922.616	1017.37634	8.862619e8
He	1.0	22.975636	5.6128516	22.172821	21287.854	-13741.132	-77832.88	664747.9
He	1.0	15.278809	2.0279555	23.383709	4804.106	-228.76027	2832.6086	-1.5724534
He	1.0	10.709146	18.345707	11.1364565	-306.9628	238.77293	-1211.0864	440339.1
He	1.0	16.358202	12.87189	9.23284	-6237.7173	1144.3853	-3739.0596	-74029.125
He	1.0	2.617802	23.918665	12.675532	-3615.527	-3485.6409	895.6674	74.829834
He	1.0	1.2920094	19.961454	14.535495	1256.2567	1559.3334	-3616.1536	973171.8
He	1.0	19.5782	9.592814	7.0846553	4421.616	-4507.7573	9122.06	-209.33481
He	1.0	13.447212	12.067569	19.709835	3480.339	482.9327	-31285.018	4.5439725e8
He	1.0	0.6728223	12.645919	20.702711	3413.4282	170.45888	-932.9828	90.805016
He	1.0	17.965433	4.4723315	6.895419	3181.8708	-2278.1116	2005.8799	2.8280182e8
He	1.0	3.2043965	7.504269	12.355125	1675.4019	3.955454	1714.2894	5.3942355e8
He	1.0	23.762383	16.238123	11.881549	-4143.1313	295.9554	3867.0215	44.44418
He	1.0	20.481339	18.292633	6.352066	-1424.9834	-8092.84	1797.5598	3.561147e7
He	1.0	0.7749471	1.8380826	8.851014	8602.48	-647.695	-954.4871	-107.70342
He	1.0	5.8265452	22.26246	19.044596	4774.2095	-517.94684	7287.9634	1.655578e6
He	1.0	8.690624	1.9134815	4.7525506	-136.06154	41049.06	40218.97	2.451286e9
He	1.0	15.219543	12.115161	1.52692	3054.2905	23574.682	12207.14	495325.25
He	1.0	15.345897	4.081565	3.505898	3555.4473	-8504.216	-2232.677	88.70895
He	1.0	0.5400251	10.019867	22.810995	-5063.732	2504.5742	453.39252	1.3815618e6
He	1.0	4.7147813	16.81941	10.372276	-9571.14	-6043.5356	2869.9072	1.5312928e6
He	1.0	8.540816	4.6430197	21.185146	-23003.396	31817.477	-56970.895	258020.12
He	1.0	19.188242	12.007239	17.420067	-85665.34	134517.2	69336.49	2.1051128e6
He	1.0	19.228327	15.108698	21.971899	41091.11	2976.7534	45073.1	3.672518e9
He	1.0	19.773605	16.412127	14.154151	-2023.0513	-1535.198	1270.4818	178.66013
He	1.0	1.5551977	5.2763205	3.71544	4803.7295	-461.8631	-2311.2483	34588.99
He	1.0	4.853782	5.1003504	19.205755	-2983.394	8569.906	2651.2466	90947.91
He	1.0	11.655498	5.088331	6.0978913	-5332.67	-148.72487	4573.3774	22.98628
He	1.0	23.90147	14.214589	22.034513	-77710.64	1416.263	-66376.65	1.27834e9
He	1.0	23.787586	1.4262341	12.009746	766.8582	5314.327	-4327.8433	437157.44
He	1.0	23.69528	0.32429275	9.529791	2510.8787	1886.6046	6586.39	1.1396316e9
He	1.0	0.876312	13.182487	9.45419	-6145.3203	-6356.806	-3199.5876	-151.88907
He	1.0	6.9893646	10.009078	12.038178	3602.6816	2112.1262	11056.012	-236.536
He	1.0	5.0731993	16.620674	13.462939	-689.5224	3568.5754	3101.8062	115.24708
He	1.0	9.801822	8.383941	19.61137	-2740.3096	10366.742	1434.6958	-1.0812471e6
He	1.0	3.2636025	0.28085253	20.209124	-11170.4	25615.121	10032.646	1.4038202e9
He	1.0	0.7590483	10.154137	0.7307685	-552.8269	7373.503	5087.5576	-171951.55
He	1.0	20.447544	22.31444	20.464426	-8206.691	-42127.164	-70115.82	3.8705981e9
He	1.0	7.0992575	3.2691233	22.311924	-14767.208	-2828.8086	-2488.1045	198310.34
He	1.0	22.491947	19.96433	11.778105	-24675.318	-71546.68	-23963.611	276082.1
He	1.0	13.280189	18.890425	14.977649	4516.215	3964.6118	2020.7158	-76.368416
He	1.0	21.060907	2.9224935	15.825013	-9301.951	-6094.4136	38393.086	3.1022157e9
He	1.0	11.64027	0.14034492	18.57579	4587.023	-322.51193	-64.487144	2.1242152e7
He	1.0	14.784533	19.167025	2.7730515	-1236.8469	-9893.223	-8922.704	-372.8575
He	1.0	17.690754	6.1598845	13.718653	3090.0403	3807.978	-1422.2219	4.436537e6
He	1.0	9.228392	3.5394335	19.676292	7814.0938	-17520.82	-9342.341	21252.172
He	1.0	6.5072756	23.234028	20.832493	4182.1772	-4827.756	790.6543	11.17211
He	1.0	10.929567	2.0668738	17.31097	4688.385	-14653.514	223.19182	999558.44
He	1.0	19.615967	20.16589	12.566497	4671.7627	-3682.9006	-1618.2632	204480.03
He	1.0	11.942401	21.365088	22.37875	-2641.047	288.7799	-3143.5188	17.779676
He	1.0	22.88198	0.73974687	7.751632	-2740.839	564.23376	-11425.028	1.1409419e6
He	1.0	14.265206	14.066203	8.902429	2196.9446	1859.1512	1956.9592	1019.7811
He	1.0	11.441524	2.9804096	15.245686	8444.839	1538.9198	40566.37	36557.867
He	1.0	10.058499	11.692984	22.443588	-29552.998	-8666.215	86542.79	5.587908e8
He	1.0	12.457973	12.033169	17.852983	10683.944	-3884.8215	-6566.958	125665.64
He	1.0	23.714615	6.083596	19.467049	-9665.106	-25131.959	9098.21	139530.28
He	1.0	16.987284	22.004536	4.741923	-27225.648	-22827.99	33206.746	3.4380367e9
He	1.0	20.641489	6.491654	2.3637147	379.84103	723.166	-1828.4532	408138.34
He	1.0	12.777533	0.97034925	7.723629	-14.5391	2995.53	-2908.5552	676.38916
He	1.0	14.750326	14.367873	2.2588623	6148.4316	-582.7986	-1592.418	-66.64876
He	1.0	15.0200815	15.34773	19.842413	2845.2368	2256.644	-3205.0547	147.0834
He	1.0	10.111498	21.740292	18.500772	23266.592	-9560.591	-130951.16	2.2263025e9
He	1.0	18.04609	17.322731	22.652908	-146.10724	3948.7283	-2897.0168	-272832.44
He	1.0	14.335152	10.543468	18.101934	4990.9893	-432.93787	-3498.576	440464.78
He	1.0	21.317297	0.8389794	19.133177	2866.8315	-3789.1514	-3904.0955	2.8857136e8
He	1.0	18.32038	7.6128855	15.903315	-7575.459	3338.5957	-1761.5078	6.760478e6
He	1.0	18.056776	14.436443	13.5982685	37793.016	-36757.953	45946.797	5.8080896e8
He	1.0	11.825838	15.020501	11.626888	-2288.0823	2144.7727	7322.9805	-484011.9
He	1.0	15.535626	18.720005	15.343446	-2524.732	-511.61893	2136.4114	818411.75
He	1.0	13.08793	8.12672	16.401962	-31142.701	-1015.70233	-1044.7073	7.778164e8
He	1.0	1.772092	3.2042956	2.437018	294.5456	6807.7324	893.6039	97437.14
He	1.0	8.673431	9.14373	14.626701	3857.741	201.01395	-6158.407	-505329.22
He	1.0	7.0711184	10.444748	22.856216	13952.945	9281.632	-6804.7266	9.695561e8
He	1.0	5.7369237	17.71087	1.0147814	4787.158	-5107.12	-4354.3975	5.6254074e8
He	1.0	6.5448246	0.5216166	14.8643	6975.7935	4461.257	-3078.871	4.2305956e9
He	1.0	16.245422	0.3878789	22.131739	67.66148	973.60223	855.7393	152924.61
He	1.0	12.789356	17.711143	7.464411	-3342.141	-2079.4333	-574.06976	439869.6
He	1.0	2.4185345	12.064699	21.674673	-5637.6216	-1223.7568	2932.677	2.328983e9
He	1.0	23.922338	10.871254	8.871128	56006.824	86603.375	32411.844	7.4092826e8
He	1.0	0.10929775	12.03183	6.852698	5511.323	1638.3588	-1873.8494	8.8630234e8
He	1.0	10.664559	20.073296	0.8087049	9211.239	-2075.7986	3118.9536	205721.25
He	1.0	6.2580113	15.78652	0.15310158	171.57135	-1095.7136	-1035.709	247522.4
He	1.0	14.035241	6.1735687	15.9359045	9822.025	-3107.51	1116.5022	55379.68
He	1.0	18.34929	4.3350353	4.9365435	3893.4846	-4775.848	-2382.5356	996139.2
He	1.0	18.60065	4.668504	22.53411	-3256.9614	-7577.0483	-4240.623	-95.770676
He	1.0	6.0972314	22.8095	10.413574	-687.941	3608.7356	-8701.521	3065.3838
He	1.0	4.157456	1.5006114	12.011674	-142147.22	-26086.318	-18484.658	3.939259e8
He	1.0	17.795355	9.9371605	21.145512	126614.695	-108033.49	13293.294	1.5570801e6
He	1.0	4.635347	16.333763	20.6766	2284.3528	6228.6094	2788.746	1.305064e9
He	1.0	2.231775	22.684372	7.9316235	-4249.1025	-5871.334	-8108.8613	-135.87843
He	1.0	11.0089655	9.137968	13.56408	3085.6504	5773.068	1505.3457	1.2532274e9
He	1.0	3.7458675	7.9842315	23.579512	3209.668	-3859.5183	-2112.4197	1641.7627
He	1.0	19.92884	18.505316	19.505825	-10215.251	-8726.265	21450.723	3.5049595e9
He	1.0	2.6472683	21.773657	16.056292	6458.695	-15424.712	-13588.295	181641.55
He	1.0	23.756298	10.229638	20.16618	4022.7815	-1796.3683	5847.3955	722303.7
He	1.0	6.6956997	18.271152	7.712196	12933.904	3199.6614	-1138.4854	6.4967286e9
He	1.0	20.479753	16.247028	9.505227	-4735.8154	12083.67	-7635.761	1.4656605e8
He	1.0	14.939606	19.625761	7.1802697	6171.9214	4356.0103	-262.99002	108.149185
He	1.0	22.265251	4.8253336	17.502306	-22681.602	-16916.695	10592.987	1.6188449e9
He	1.0	16.129803	18.304403	23.408455	-3929.8782	6028.3076	6.400778	3.4168902e8
He	1.0	5.663273	20.19899	14.567755	1906.0607	-2773.8528	1967.0897	326.46332
He	1.0	16.27816	8.082824	12.581412	970.0497	22452.383	8811.561	130943.34
He	1.0	19.608505	2.5923667	3.3203852	7857.654	1674.073	-3961.4126	3.0708413e9
He	1.0	0.5303896	19.778448	8.883017	-699.10706	2057.004	-6504.2427	-193209.98
He	1.0	6.812534	11.611665	16.794659	-308.10077	1102.6628	5537.1055	52311.54
He	1.0	0.39922515	20.10245	1.5909833	1411.2461	-8299.399	414.54288	45397.266
He	1.0	22.501936	13.529809	1.979623	902.5763	-2497.6833	1102.3251	1.3543884e9
He	1.0	8.273516	11.404113	11.15031	5834.735	-46.024654	2034.3271	-19.187134
He	1.0	0.6513665	7.64709	23.289085	784.6988	-1631.6827	-5349.4233	76.15199
He	1.0	6.5631886	19.640879	21.524364	1406.291	593.5232	2805.0864	277.52655
He	1.0	8.448012	5.0324316	5.366338	-1996.682	-5668.167	-2578.8984	864583.0
He	1.0	17.56523	1.8863015	9.392948	921.65027	-10415.258	1738.512	85446.14
He	1.0	13.652424	4.0418553	0.60999155	-3599.074	6144.336	12.083975	1.0264814e6
He	1.0	14.866469	22.71923	14.349177	635.8727	6786.2354	8869.676	57454.047
He	1.0	8.137636	18.672194	9.382031	-3848.7788	4857.567	1996.3134	390186.03
He	1.0	8.093431	7.518222	2.487862	-8489.572	-20362.154	-2071.828	3.7153078e8
He	1.0	16.629932	9.696191	10.465886	289.03494	-1905.0668	-2152.9968	190.57442
He	1.0	10.390792	23.278421	5.5137925	2175.193	-901.6017	-695.8086	239037.19
He	1.0	23.149702	4.6541443	13.711125	20054.783	14708.774	-9.440782	1.4390957e9
He	1.0	3.49203	11.102797	5.8474164	8492.963	-4042.885	-6233.824	732009.44
He	1.0	21.555868	16.003386	4.9415054	-16090.795	-10103.657	8839.311	2.354428e9
He	1.0	10.392642	15.774347	1.5281899	5694.9097	1626.8496	2868.8374	-94.53977
He	1.0	21.259113	16.680708	16.514753	4995.8857	14064.234	-2646.4287	-553.9921
He	1.0	17.673094	3.0200672	21.216223	3211.3057	602.35315	-2321.6516	119.077965
He	1.0	5.24128	13.151891	5.1706843	-2044.4333	2083.7495	-597.0389	410055.28
He	1.0	21.274405	22.740385	0.20083372	3421.396	2434.7773	3209.229	158977.77
He	1.0	21.694895	19.340763	0.9864395	1141.8936	1677.1589	-1437.946	179959.36
He	1.0	3.6498225	22.44948	19.818956	-4289.3887	18140.096	-19946.904	675458.4
He	1.0	13.181243	6.330324	5.666414	7.8550243	-3583.6423	639.77295	2.183806e9
He	1.0	9.38828	14.92479	13.4733095	-21424.174	59633.855	-47753.723	3.0946424e9
He	1.0	4.738871	1.0712574	9.016692	-9930.031	-1105.2491	3689.4377	125.578064
He	1.0	8.501609	8.956368	5.875802	-4829.1597	389.97153	-3233.6345	-45.844852
He	1.0	18.198692	21.792374	22.309235	27.90115	-1271.0951	691.913	1.32678104e8
He	1.0	11.862893	20.541632	10.567854	7003.72	-6597.29	9845.101	-2.0145112e6
He	1.0	7.002982	18.560736	2.4078674	-2021.7322	-2339.8965	-2204.546	132.80264
He	1.0	16.256079	12.8169155	16.176416	3272.368	390.00665	6127.832	282.05844
He	1.0	22.584408	11.33807	1.0677692	5686.309	-2174.196	-474.39694	3.9555784e9
He	1.0	15.497562	2.6225188	14.372505	-4550.285	-1959.3253	3363.4487	115931.61
He	1.0	3.561797	6.4717884	14.165416	-3064.3484	-3190.8594	23.330292	2.1134866e9
He	1.0	14.232783	14.120077	21.689594	2426.0835	-4867.819	-3804.0796	1.9065381e9
He	1.0	17.40391	10.096666	1.1564319	4179.9517	-6205.3438	-2349.2131	-411781.38
He	1.0	4.5073013	18.225248	19.118628	-4352.2783	-4624.8926	-65.60052	1875.892
He	1.0	19.298496	20.647448	4.3102026	-246.45651	4457.604	1818.6316	-96896.37
He	1.0	23.93748	12.8740635	4.3541126	-11855.015	9095.657	61048.613	545482.56
He	1.0	7.2395687	14.966878	6.8249755	-4792.5923	-12735.977	-1211.8296	940901.56
He	1.0	4.1094093	22.753649	5.830027	-3157.4346	-7733.4478	-7626.509	-164.21555
He	1.0	5.025972	6.3993063	12.638982	-6309.76	-5703.254	-1855.7706	4.4963835e6
He	1.0	14.9028	22.252626	8.131703	403.50653	879.82477	9654.96	-219.14517
He	1.0	13.531603	1.7274971	15.43268	6862.7217	-2169.9968	-4921.5273	401369.4
He	1.0	16.922037	1.2315007	1.0568955	-4068.3398	-2750.9429	3324.3872	120467.01
He	1.0	18.374365	6.1825843	17.300886	-258.33786	6609.984	3882.7651	1.0043706e7
He	1.0	18.433018	15.886317	9.909451	4405.5576	-6988.725	-2119.4749	-140.4103
He	1.0	14.093788	18.796555	18.886993	4658.0635	-83.41788	-1796.8232	-14.342842
He	1.0	15.11681	9.456582	4.411563	-403.34125	10855.5625	-3718.2644	-1.310554e6
He	1.0	17.922413	4.8049884	12.018809	4599.5312	-3149.242	-2699.1765	6783.658
He	1.0	9.432093	17.778807	16.821016	-2795.6492	667.275	928.14935	181479.6
He	1.0	17.057083	20.724867	13.258597	3854.5413	-1576.7008	-1909.7788	828497.8
He	1.0	11.788875	7.0106187	23.699827	3938.412	-2379.9004	-1101.0206	361470.56
He	1.0	0.6665113	7.2766695	6.8869004	-2583.144	-370.42813	2893.8735	508182.5
He	1.0	4.258561	6.8001127	16.848204	-1823.5219	4809.849	1129.5669	765978.56
He	1.0	8.415374	20.864273	17.260796	-3207.859	9316.273	-5183.1987	-280.7435
He	1.0	16.986181	0.9146615	20.115053	64810.22	47368.668	35549.44	3.0228067e8
He	1.0	2.5559695	3.9481955	5.1601987	-4660.705	-7716.3213	6641.982	-902767.75
He	1.0	4.57633	12.175027	10.787705	35288.523	33184.957	-110923.66	777310.5
He	1.0	10.819689	4.766573	3.6029541	-5733.111	8276.386	11395.246	813114.06
He	1.0	7.9302998	13.300789	15.046222	-6464.7324	-951.00024	-2686.5286	416.08304
He	1.0	6.274306	14.576443	18.921234	873.84326	-7805.3525	1167.2424	4.845763e9
He	1.0	10.014366	3.3878229	4.818513	27468.395	32452.395	275.14893	81314.664
He	1.0	7.0162005	14.689219	1.7589663	-10649.785	15258.393	17204.227	1.2430208e9
He	1.0	6.556545	17.23703	22.321545	-3914.2693	8267.086	3490.4253	7130.0938
He	1.0	21.47274	7.4596653	23.203152	-4948.2886	3579.4058	2312.1843	394777.47
He	1.0	18.572344	18.417582	6.929088	-7905.5576	3276.0645	-42.184425	6.704421e8
He	1.0	10.702869	20.128988	14.098521	-1458.2832	5110.562	5461.534	-126.2705
He	1.0	0.95438576	3.6885335	12.950973	2158.7314	-9370.355	-5613.0947	-238.03343
He	1.0	19.72413	1.7717133	14.451831	-3725.2703	-2847.6028	-3683.5334	143.91609
He	1.0	17.541761	21.113373	17.377975	-9986.201	-2192.6443	3224.0713	-268555.16
He	1.0	23.134045	21.537928	2.3221989	-2552.282	-4700.727	4089.0408	1.2868068e9
He	1.0	12.902647	3.110984	13.555966	4736.2935	3080.0684	4940.5327	-604539.06
He	1.0	2.8988364	13.806934	17.78587	73.396484	3358.3872	-1746.8579	-15.768794
He	1.0	0.32563505	17.786713	2.6546998	39754.438	16610.004	26006.062	16330.511
He	1.0	18.24125	10.169655	15.811792	-3850.348	1471.6859	-4247.623	0.12646349
He	1.0	5.503038	14.455453	14.6582985	5077.804	855.1747	-1341.6372	17118.688
He	1.0	17.19792	1.0260029	15.674177	1857.4734	-338.82294	-3279.6553	2.0833002e9
He	1.0	18.933994	14.521177	5.9715614	-3275.0793	869.26886	3958.2837	352645.6
He	1.0	20.937508	13.1188	23.114965	-1303.506	1777.2302	-1477.0541	6.539994e9
He	1.0	18.207878	11.529357	23.35655	-3661.9814	6714.362	4430.259	-169.83783
He	1.0	0.562401	16.28643	22.813309	19260.064	-2821.1755	51891.484	13605.953
He	1.0	23.529802	18.525831	10.0356865	-89.03662	384.2856	664.2335	76279.805
He	1.0	12.642071	11.55987	21.456589	-5421.5415	-7232.1655	31048.447	108683.734
He	1.0	24.02151	23.601221	12.811501	-1188.5778	1341.1494	2998.3213	5.1568022e8
He	1.0	17.964628	19.33375	8.597758	-7937.5073	7138.849	1410.7103	70681.875
He	1.0	11.6517105	22.155148	16.982384	1080.1431	-5560.879	157.09772	-37.72298
He	1.0	12.493655	6.3312016	11.241605	908.73737	6138.128	-2318.3152	-519740.25
He	1.0	3.378677	11.381488	16.483818	-4219.2046	5226.7974	9126.638	-274.51245
He	1.0	15.414988	15.260461	10.25409	3549.7961	-1274.8606	-5218.9995	-315138.88
He	1.0	1.0958719	1.8117639	22.900948	1283.5356	1595.2207	3667.923	331203.75
He	1.0	16.73387	3.3709176	5.6594877	1784.9855	5298.8647	-2411.9546	-74.82928
H	1.0	16.317566	3.5433643	0.3895685	-730204.4	-79914.63	-15288.77	-2.9940595e9
H	1.0	7.2906485	12.873212	5.8656254	-254233.16	476276.1	-314068.53	-1.9939719e6
H	1.0	14.880389	7.312026	5.11905	-261489.12	260555.95	-620484.4	-1.0964471e6
H	1.0	8.079143	18.598543	13.698545	-154614.06	18756.752	-72204.79	78181.195
H	1.0	21.9112	3.4118311	5.9280443	151780.39	-112403.98	304484.03	-155068.8
H	1.0	18.295633	23.631853	0.20297392	-11667.8125	136971.9	-161030.4	3.3267546e8
H	1.0	20.455248	5.342895	5.712553	-260680.0	153053.52	-234029.03	-4.3490944e8
H	1.0	19.678484	6.875075	9.373697	-46332.67	-209577.0	160112.11	40348.47
H	1.0	20.239744	10.777152	2.0081315	-619254.44	-877949.8	-307879.7	-1.1120157e10
H	1.0	4.7993674	10.27684	18.67093	185068.78	-78896.5	18643.502	2.08796e9
H	1.0	2.719831	15.78149	22.750849	12173.291	-40402.766	-141061.36	695346.5
H	1.0	5.3199525	3.9535227	8.932861	202625.4	39227.344	239608.97	2.9994717e8
H	1.0	4.0018682	2.6706417	23.589842	493828.3	196810.22	-40378.305	-498565.47
H	1.0	6.789715	11.084772	4.280531	308899.44	-286764.03	-310668.53	-753939.5
H	1.0	10.495446	1.7895097	19.270596	221974.72	601541.0	-289204.22	-6.4680187e9
H	1.0	2.3920357	5.0485864	16.142458	-134173.5	36967.266	53890.848	5.0659866e9
H	1.0	3.3210206	13.480657	22.886765	-245448.3	-258121.73	-111746.445	-9.338383e9
H	1.0	1.6055365	10.6272	4.949679	97469.63	239034.1	-441149.9	-798932.7
H	1.0	16.802473	5.8277793	21.756186	225903.33	-432666.5	-193030.12	-9.765885e9
H	1.0	1.0978531	7.469128	12.199157	-418283.06	-224252.02	364812.44	317630.4
H	1.0	11.192884	21.244787	3.8937607	166463.98	-330644.03	215500.62	-304486.88
H	1.0	12.066677	22.93775	7.4577117	-100982.25	1027.8909	-21813.672	8.0069417e9
H	1.0	5.8173175	0.59199786	19.04038	224195.31	-111091.37	155977.02	-2.1335054e7
H	1.0	18.71021	12.540809	4.003126	219171.95	-98928.37	386939.03	-514069.1
H	1.0	4.409267	21.201494	21.828339	-229887.1	360940.62	390539.66	-3.8875558e9
H	1.0	19.37186	18.697123	3.381391	58930.58	-302251.4	-203928.16	-139495.05
H	1.0	15.483898	7.1895075	2.8220391	161727.03	357385.25	139884.92	-178607.28
H	1.0	20.88759	21.318544	13.78589	194391.86	-64989.023	240855.34	3.5399916e9
H	1.0	2.4826665	22.060415	14.017458	-222464.55	54282.355	34788.777	2956.2314
H	1.0	17.213606	6.5026813	1.6942663	213594.05	321076.03	-260691.2	2.0828837e9
H	1.0	10.503333	19.089308	7.274005	162507.95	-255177.31	204725.28	-109376.62
H	1.0	0.5927039	17.121042	13.750397	80080.914	-553696.6	76771.664	9.946365e8
H	1.0	2.051784	0.008034818	22.997519	59625.383	-64045.67	-113469.24	-58602.047
H	1.0	21.636185	3.3895996	13.983684	253284.17	162578.86	8296.582	-855935.2
H	1.0	0.27235073	8.351712	9.437784	-473067.3	111125.77	572312.56	-2.685844e9
H	1.0	7.2863016	5.4641933	7.612096	410366.66	-296795.7	-26888.285	-1.7471638e9
H	1.0	7.6782694	1.6533713	19.945621	216534.6	286487.7	-152591.5	267684.16
H	1.0	20.351007	17.94183	23.535234	227959.1	228276.64	-93729.945	3.2549524e9
H	1.0	16.259644	19.657034	18.322483	394755.97	-491101.2	-141571.27	-9.354952e9
H	1.0	21.795216	4.474395	1.9303272	-32068.63	249346.86	-316451.62	-7.402503e8
H	1.0	9.950396	13.440154	14.613247	128538.91	156807.14	232998.22	-463882.4
H	1.0	0.78931	13.084084	17.967411	-134232.72	139593.25	594835.6	-32569.463
H	1.0	12.9977	15.630425	21.156942	155895.25	138177.6	71599.88	2.3497587e9
H	1.0	14.539901	16.828535	6.7869096	216504.98	171449.2	-151980.73	-202203.08
H	1.0	0.34428152	24.042625	3.0888653	60423.508	-442.09674	144774.06	9.275368e8
H	1.0	15.342764	4.554836	17.92716	-359349.25	-155086.16	-120917.11	-280481.53
H	1.0	21.060804	6.5588107	20.870003	104847.9	97296.73	-77220.37	1.2515846e6
H	1.0	20.745125	21.02227	2.3898504	-589527.4	327285.66	169765.47	-5.0840332e7
H	1.0	15.027778	16.382278	15.983891	-133226.8	120657.16	-164318.92	-5.0349053e8
H	1.0	8.853499	22.767344	1.8407155	-7406.7993	-397112.94	-401347.97	-48522.035
H	1.0	3.9722102	11.644383	12.563733	-526629.06	-61086.184	-137703.72	-1.4091241e6
H	1.0	0.4727816	17.680815	7.823335	-51658.285	258400.31	-8465.906	412559.44
H	1.0	19.695799	16.018667	18.28984	257348.03	-202120.67	-10583.403	-115780.234
H	1.0	7.7873106	6.758672	16.668064	211167.36	-411837.56	732278.7	-6.9100703e9
H	1.0	18.691124	18.042976	13.021189	695319.0	400875.2	57275.61	-952943.94
H	1.0	0.09103837	23.92011	21.940952	344031.44	72174.12	-245167.39	705610.9
H	1.0	4.911065	17.886269	2.8650491	-5976.946	-435174.97	215081.1	139.41447
H	1.0	3.1143067	15.863439	12.739277	247956.48	-9551.242	50991.062	175698.62
H	1.0	13.806976	0.7458094	17.15616	111208.18	217478.39	93618.27	2.753128e9
H	1.0	16.90722	17.726307	16.617685	554607.3	121929.7	127255.29	-99895.234
H	1.0	4.114495	9.239898	15.985911	-45187.4	181202.84	-21860.842	949758.2
H	1.0	20.230013	16.33868	1.5897577	-188222.33	404932.25	-633629.56	-9.025396e9
H	1.0	19.48578	12.929838	10.753854	116579.12	5785.62	131539.39	881754.1
H	1.0	0.2573516	20.755768	22.409931	355353.56	152650.95	-82710.76	-179890.0
H	1.0	3.8979425	14.880534	5.7783604	124699.414	355848.03	-298536.16	1.0580241e6
H	1.0	19.52157	13.800703	8.972641	-41968.93	197445.6	164162.73	2.7230912e9
H	1.0	23.160341	21.741568	12.282448	130174.79	-118796.43	-124794.71	-6.472724e8
H	1.0	17.93462	13.079796	15.069925	496119.16	-61133.49	122679.38	-257447.27
H	1.0	3.8456786	20.979118	3.8454528	-178883.2	702952.56	-327329.03	-918902.56
H	1.0	2.131307	10.356317	11.921241	-19182.66	255695.78	-183861.83	1.0854078e6
H	1.0	18.039507	3.1064627	18.551147	556990.2	402953.7	63051.64	-870776.3
H	1.0	9.81106	21.852177	20.42827	509382.25	-179057.12	158154.81	-1.8940628e9
H	1.0	18.681688	2.0271912	16.748077	307981.2	-601012.06	-215159.22	-2.5516248e6
H	1.0	15.356258	10.589599	0.200272	124595.55	-64675.76	-473899.0	-384366.94
H	1.0	10.694726	7.4907017	12.2376175	245012.1	147849.48	-449987.28	-1.0241771e6
H	1.0	17.974169	16.239756	1.9994342	243071.67	175176.5	532353.5	-1.1495365e6
H	1.0	5.206396	21.845875	16.797932	-176828.12	3371.178	-265533.34	5.9847905e9
H	1.0	19.543798	11.2774105	5.5250545	106505.336	-61030.375	-188683.28	-2.5710362e8
H	1.0	22.128628	6.9956183	9.470797	49009.473	-193046.62	84259.0	-156214.78
H	1.0	8.447649	0.16612373	5.9206967	-140546.5	244116.67	148274.7	-2.2120018e8
H	1.0	14.819586	7.3522058	0.7700731	384015.72	238320.78	-189028.44	268914.8
H	1.0	13.392838	13.800698	17.639757	134264.52	-155722.36	63097.04	-36828.113
H	1.0	1.1557156	17.665798	16.96133	-163972.89	-209894.08	-128113.13	812640.2
H	1.0	20.251488	19.194624	17.672546	342644.22	236782.7	407254.84	-4.622033e9
H	1.0	16.477058	8.725342	8.625527	191561.44	-218980.81	328761.44	949471.75
H	1.0	8.853163	21.4528	5.253188	281824.12	112759.17	-111023.336	-9.783158e8
H	1.0	7.6594086	18.901443	16.366533	-78168.72	284793.66	326040.84	-160990.22
H	1.0	4.9548297	14.450701	11.929745	-75144.836	418603.3	-2931.017	133135.61
H	1.0	22.125769	23.120523	13.942144	-642566.7	-188997.55	295106.34	-1.4576609e6
H	1.0	4.9565234	4.6627626	11.281354	366810.3	-64865.04	-362253.28	1.0032202e9
H	1.0	21.682285	11.509806	13.583246	-219842.64	349605.62	271355.78	-1.9571017e9
H	1.0	10.093186	23.859919	20.287924	-216046.97	-420881.97	329054.53	-1.6005234e9
H	1.0	15.9848	0.84211195	12.921083	-45784.84	467830.06	-466180.7	-1.1631465e6
H	1.0	8.734173	4.123582	23.067455	120185.445	18162.861	-76102.04	5.4989937e9
H	1.0	16.191837	3.5480971	10.605346	202443.86	198062.44	-141944.39	2.0520539e9
H	1.0	13.315241	1.1261221	2.9510417	118278.95	117526.18	-149566.11	1.5597731e6
H	1.0	7.1111274	14.2997265	20.794556	-114577.19	353977.34	201463.88	-2.0501952e6
H	1.0	11.374256	14.344086	19.099745	341148.28	-160535.58	-126470.3	3.0420785e9
H	1.0	6.141706	5.648977	17.33919	-99638.734	126722.21	-82731.02	850798.2
H	1.0	8.631346	12.530882	16.750742	-167537.33	133522.83	-23121.652	2.4942246e9
H	1.0	23.22851	12.077274	18.855558	-100961.37	50218.316	-543936.56	-687634.1
H	1.0	16.816723	14.452925	19.004553	140848.5	-128824.79	419706.94	-3.6263465e9
H	1.0	17.205486	1.8936747	4.0026073	40482.285	567076.8	210749.9	-120380.65
H	1.0	14.087877	19.943485	16.735533	105434.81	124433.36	-202127.75	347357.5
H	1.0	12.462021	18.21051	13.089348	-432589.62	98834.07	4076.3025	245940.28
H	1.0	16.204727	18.997068	12.536765	119940.8	75799.35	243184.61	2.451567e9
H	1.0	2.001321	8.453901	2.0810418	-18124.773	-43735.637	-26691.848	4.2747162e9
H	1.0	10.603798	10.891321	0.4769917	136650.56	410100.6	-63625.754	-2.522369e9
H	1.0	3.8278658	20.481407	20.057085	24890.732	-403817.66	-121044.23	-1.0452106e6
H	1.0	16.887863	8.325468	14.653884	1994.0181	-219035.16	274328.66	3.5227054e9
H	1.0	23.88995	16.44186	20.993517	16972.012	156969.23	76484.63	453437.8
H	1.0	2.3984733	12.08521	10.728356	276584.6	179029.9	468603.03	-8.3119227e9
H	1.0	18.432089	6.5133486	7.5943036	276766.4	-22235.613	489027.8	-2.5941563e9
H	1.0	21.143633	20.33437	19.560253	257800.62	-36178.855	-57121.21	-182714.88
H	1.0	7.2535806	16.85805	4.15803	-131746.36	262719.72	23965.652	-453726.3
H	1.0	19.650967	16.555576	20.460142	1230.1489	22438.154	-487233.44	592519.25
H	1.0	0.7816969	14.729502	3.5275228	128133.46	-43594.13	179402.02	2.6817472e9
H	1.0	17.174227	8.329901	6.628814	175705.56	-120085.23	-151225.78	-4.3567565e8
H	1.0	0.31236908	12.718394	2.441562	42773.67	-254135.12	45002.766	8.266322e8
H	1.0	1.679597	11.120385	18.701296	163605.42	302893.72	-310765.7	531374.1
H	1.0	20.745241	1.3963872	8.937764	-359052.16	248289.1	27787.447	-650962.7
H	1.0	21.494272	2.4612477	17.970655	-439018.94	36574.254	241056.47	-5.318078e8
H	1.0	12.43674	12.479511	10.597664	-88859.6	-133789.98	-309133.53	187130.77
H	1.0	5.6103945	9.706267	20.770052	-334948.22	-66083.5	60627.008	2.0055675e9
H	1.0	13.832212	5.121064	21.42688	-192920.72	-198887.7	-167663.42	2.9517216e8
H	1.0	8.3738985	16.006098	0.8377323	-229869.25	-51446.7	-272656.34	-77029.92
H	1.0	11.990011	22.849201	20.674458	-12973.016	61695.926	393257.6	5.462955e8
H	1.0	15.070602	14.157176	4.318407	-315361.84	-157738.83	-70836.07	-79232.016
H	1.0	5.4709077	15.36226	22.278214	-99804.87	-38854.86	-141659.38	-1.0807726e9
H	1.0	12.030429	7.917863	5.2371325	-214709.19	172314.4	74270.18	5.900184e9
H	1.0	21.899761	5.4202332	15.451946	66115.305	151480.45	-74758.72	464709.16
H	1.0	1.504682	6.4099984	13.92452	10847.641	78429.516	235575.94	5.8845203e8
H	1.0	7.8633375	18.30281	5.566517	247478.77	178175.11	-130175.87	7.507311e9
H	1.0	12.219617	4.2592006	20.396511	-90354.75	-212659.64	-362639.97	1.6687733e8
H	1.0	20.945717	17.059282	11.69722	269264.0	33895.25	-343798.28	-199503.83
H	1.0	6.7029757	11.575133	1.0027182	-517979.8	192276.92	331736.66	7.23669e7
H	1.0	15.279049	23.08014	5.3331833	-154139.4	-17874.734	-289680.47	-1.8206404e9
H	1.0	6.6085253	10.356393	8.682349	515685.3	-156327.5	-361155.97	-841335.6
H	1.0	19.067707	23.061728	14.083094	177983.33	-139453.66	96787.79	3.9721485e8
H	1.0	14.737849	6.2303505	20.01345	258241.53	-303284.53	-138134.67	5.805757e8
H	1.0	5.593279	22.510824	24.025978	-130473.94	18260.572	415690.06	2.2921088e6
H	1.0	7.831555	23.370966	13.947841	58457.555	444142.78	480717.9	-1.5725742e6
H	1.0	3.5464802	11.384146	20.041859	-72446.92	454041.88	175284.42	251320.02
H	1.0	13.303256	9.040584	6.688897	84176.64	-24220.55	-609270.94	-6.1406147e9
H	1.0	15.276523	9.053898	19.285404	63755.938	-134518.8	358518.03	-225599.69
H	1.0	23.226194	14.908171	5.0487037	-137746.34	-68150.18	128164.086	300179.16
H	1.0	0.4486292	4.399164	17.440025	190494.7	-101815.586	-228755.95	243974.33
H	1.0	12.677332	13.424515	22.856907	448234.88	72490.59	196469.42	645956.06
H	1.0	23.3373	21.662579	5.553209	-80257.98	436732.22	-402404.28	-5.095928e9
H	1.0	1.2379019	2.4918025	4.2672777	215953.03	-267728.28	-154720.39	-8.8309824e8
H	1.0	23.554922	6.3129663	17.332449	51817.645	32428.26	277547.0	-856136.9
H	1.0	4.8527713	9.691013	6.816795	-295186.28	-321348.38	368259.8	-341891.4
H	1.0	13.893468	20.940002	19.531662	-64785.125	375709.25	-361307.66	-244740.61
H	1.0	16.358614	11.24391	21.003065	88125.52	336091.88	1461.4437	-1.3536725e6
H	1.0	4.3388033	13.892377	19.962833	367915.72	275045.2	55878.13	-2.6164275e9
H	1.0	21.726042	20.705652	4.40394	-237540.23	236787.12	86935.83	4.3303875e9
H	1.0	2.5350914	5.2852464	11.154411	-263090.28	-189637.69	-140704.11	1.5680564e6
H	1.0	22.660719	15.205852	3.1897068	-430275.28	-45144.297	271368.53	-2.8384013e9
H	1.0	13.628725	11.123942	9.191041	-361773.16	239161.23	45225.785	413186.78
H	1.0	8.067193	0.27494687	3.8178205	-355375.56	-516349.2	95421.47	-1.4518731e6
H	1.0	20.414537	22.308252	10.160071	-213192.7	79369.12	291120.7	1.7178694e9
H	1.0	20.171892	10.510468	16.65816	346431.22	-22257.877	85575.85	-3.5118915e6
H	1.0	22.582928	15.596297	9.464264	-408001.44	69638.125	-187586.66	223044.5
H	1.0	5.02294	3.59728	13.300797	175478.19	-217233.31	11713.114	-1.9512844e9
H	1.0	12.9473915	23.877487	13.467656	-389919.6	-336609.56	570600.0	-1.1884626e6
H	1.0	12.074685	16.368555	0.09674792	-552357.94	-26808.69	-125548.164	-441700.34
H	1.0	9.189874	18.417852	1.9672878	122157.6	352799.38	25712.57	8.618223e8
H	1.0	0.6884331	14.875617	8.10484	459536.3	412606.6	163383.84	3.6655373e9
H	1.0	12.730287	22.974472	1.1622778	63147.13	215149.45	-242653.78	247844.02
H	1.0	12.884605	12.0139265	1.1189275	175270.36	291444.53	-326438.8	-219121.45
H	1.0	17.102036	11.162433	5.006896	331229.4	16402.963	147634.1	1.7863562e8
H	1.0	0.6537359	22.906502	1.4324893	477368.47	178532.1	-185664.61	-257069.06
H	1.0	14.196479	5.1905007	11.916167	200402.2	47566.312	91555.016	-30964.697
H	1.0	18.39512	4.801094	2.872651	226453.53	-332725.97	9694.232	-1.6495261e6
H	1.0	15.583881	2.475095	2.1181493	144163.73	509689.62	442028.53	-629085.56
H	1.0	16.776829	11.849349	2.7847264	-69423.07	280019.56	-389494.9	-1.6905028e9
H	1.0	22.217196	11.786128	21.963467	100743.164	-203085.66	223046.86	2.0537783e9
H	1.0	18.190355	23.103228	3.6350121	-516614.25	-318767.25	-333011.7	-1.2659499e6
H	1.0	7.02027	15.141735	10.988071	-344660.22	-25829.05	709257.3	-1.418637e9
H	1.0	19.842773	4.0029244	20.022846	-33209.734	34408.434	-257961.56	535217.1
H	1.0	16.013103	17.949926	8.101624	806162.4	-245798.36	-97440.914	-928063.5
H	1.0	14.088654	19.810623	0.22563577	-311367.06	-85306.57	-31917.668	-2.2697078e8
H	1.0	16.457344	22.328161	21.278852	-118549.49	460004.25	-168217.06	-555894.4
H	1.0	7.8696303	8.456665	23.288286	-211563.67	-72511.03	-440061.47	-3.182955e9
H	1.0	22.808046	9.3246765	8.353521	-161353.33	-312434.12	237312.44	-2.1471154e9
H	1.0	23.731691	4.155559	5.0471015	84018.11	220647.22	496235.66	-193937.55
H	1.0	21.043915	13.844831	21.22513	54137.812	-109300.96	148422.98	-3.2207788e9
H	1.0	13.010214	2.1147587	5.3663974	75083.48	148837.28	184074.4	1.4390943e9
H	1.0	18.04517	19.571022	11.07934	304469.06	-137978.02	131799.8	-275457.9
H	1.0	16.321867	20.175508	22.66397	61497.715	-511738.22	-144600.31	-5.1189135e9
H	1.0	5.038382	12.186477	14.278046	-402328.34	45456.87	285519.28	-2.136767e9
H	1.0	10.888268	3.327451	13.380342	496694.0	45064.516	91802.6	-770520.4
H	1.0	8.575257	11.247514	14.638129	-230289.1	-62850.09	-362882.25	6536.9023
H	1.0	12.618486	10.490661	12.155725	-17325.084	348445.22	-756414.4	-1.3231155e6
H	1.0	8.903958	13.991893	10.052778	-162525.58	87068.63	-12743.801	1.1885236e9
H	1.0	1.0880086	17.861467	0.56113636	-188437.55	-444676.84	-243289.73	105239.49
H	1.0	20.637445	23.329498	22.14798	-27167.97	-394876.28	-95659.33	-743374.9
H	1.0	5.6319714	12.498942	18.977238	161121.38	515590.38	78246.766	-563676.94
H	1.0	20.73666	8.637027	12.978347	248074.77	-493237.44	-194270.19	-4.1268442e9
H	1.0	12.787635	8.951571	23.368599	47910.707	-538168.1	-390323.75	9.545781e7
H	1.0	0.39946824	3.9645338	22.155952	-169941.58	-9422.323	-66938.16	82287.49
H	1.0	23.931618	2.0106254	2.7667022	-229342.81	-157263.6	157728.81	1.8835525e9
H	1.0	15.228428	14.445217	17.31843	75494.12	313701.88	372849.25	-2.5738598e9
H	1.0	20.964788	1.7228245	12.645607	376366.44	411403.38	-365250.7	-848704.3
H	1.0	17.709743	14.305821	7.740062	359924.62	78570.3	-57870.9	-2.587863e9
H	1.0	10.495699	11.740247	16.313257	133365.4	-567192.44	-566518.9	-1.6893068e6
H	1.0	16.37656	21.423563	2.7746801	-743750.75	52380.242	139959.48	-5.932547e9
H	1.0	11.23076	0.21701844	9.360443	-72025.9	-355792.2	380216.97	7.9091405e9
H	1.0	2.7037895	6.7150803	7.860536	-117706.07	-159557.89	-94505.99	201008.17
H	1.0	12.764896	14.447768	1.490565	413299.78	-356364.16	-363432.84	-808235.75
H	1.0	0.7272577	5.1081815	6.4984026	-624942.1	670349.56	115767.06	-2.2812928e6
H	1.0	0.35922638	7.93085	19.32441	-96514.39	261752.03	52148.902	1.02568694e6
H	1.0	7.9774747	22.235378	9.031466	22368.697	-23251.477	-92603.734	648850.0
H	1.0	11.683085	8.909586	21.733839	-435282.03	92567.49	307643.88	-523486.5
H	1.0	22.20215	9.365106	10.77805	-205441.19	-197682.1	189664.17	640867.6
H	1.0	6.0196857	1.891422	12.225653	-109545.01	-250878.25	-137949.23	-2.578212e9
H	1.0	18.112682	2.5839758	23.501783	-440747.78	118056.3	-204328.36	753649.3
H	1.0	9.830579	22.566065	7.610079	-80978.18	166756.58	96629.625	37488.98
H	1.0	2.582576	13.491128	2.451542	669972.75	-35065.26	128558.23	-1.0006235e6
H	1.0	0.84451234	4.1738353	0.8220893	166144.23	-109775.25	727414.44	-693922.1
H	1.0	21.31854	23.990084	10.676275	-534606.2	73959.88	-95356.055	2.488316e9
H	1.0	13.487415	3.2666202	22.602915	-549462.4	-33251.945	78175.68	-6.754235e9
H	1.0	23.493073	2.8976488	7.2999806	-516845.5	-156029.78	115197.46	254676.94
H	1.0	23.051704	14.425099	7.1306367	-320948.16	-82431.875	318416.9	-9.387432e9
H	1.0	2.8372626	4.377284	0.22627814	144550.33	133191.12	-490024.1	-1.5953056e9
H	1.0	19.375637	15.796765	4.1953354	-50286.656	34139.37	-26254.457	6.6285194e9
H	1.0	22.200294	0.55492616	23.189953	295224.6	137959.78	391258.5	485567.5
H	1.0	22.61543	12.57547	9.879128	14959.195	-365737.25	-32373.06	68541.82
H	1.0	5.3750405	18.762577	9.997505	-39702.508	287980.38	-287947.8	197477.52
H	1.0	19.168406	20.72531	0.029473111	-131651.33	225266.11	-17912.365	1.2897076e9
H	1.0	9.554968	19.372547	18.69712	91237.984	141819.17	72389.32	1.2512374e6
H	1.0	19.086542	15.472437	11.886079	-328422.28	297492.06	-636248.6	-966837.56
H	1.0	21.138708	23.106113	8.497814	-58733.207	302960.84	352086.06	-45852.418
H	1.0	1.194651	17.774609	10.945279	116426.49	265565.4	311221.84	-900330.06
H	1.0	15.548428	2.7187853	8.607429	-81152.086	117285.27	206420.95	5.622513e8
H	1.0	18.248144	2.722056	1.7334588	141375.64	-163948.34	-538942.56	-1.1053105e9
H	1.0	4.6405544	10.787831	4.169629	126637.23	-26665.604	-349513.0	5.0705736e9
H	1.0	8.067696	6.653958	14.561328	-209349.23	46059.95	147921.5	-69386.17
H	1.0	0.13558196	19.4284	16.861578	83711.25	213021.61	107429.04	-1.8212474e9
H	1.0	1.3699999	2.6614945	16.346447	-168577.98	-466448.3	-149769.78	2.9755156e9
H	1.0	18.292383	0.5087503	21.661392	188857.61	-704832.75	44867.574	-3.2332242e9
H	1.0	14.104188	11.263934	16.035044	-118699.58	190247.45	-33486.758	34524.707
H	1.0	19.367062	1.3024772	18.436935	-334614.22	176871.23	-5705.764	-2.404833e9
H	1.0	12.15315	17.896494	19.6685	-224353.81	-348190.97	-187355.3	-225169.66
H	1.0	19.470457	9.999324	19.78979	141264.9	489698.6	160602.9	-5.8840535e9
H	1.0	22.442923	5.7992563	24.050014	-123089.83	-70335.04	90133.15	6.7501343e9
H	1.0	16.486	21.31635	15.177715	609759.4	-431250.16	337373.88	-1.2115668e6
H	1.0	9.445806	17.440086	12.938194	284889.47	170688.89	-115120.71	-380498.75
H	1.0	1.0583426	1.0767394	20.604324	157434.56	83037.29	-727188.75	-388496.7
H	1.0	10.181151	1.5301251	10.436139	108426.82	-1780.3486	-75048.9	193088.1
H	1.0	20.113075	1.9707228	21.558317	-36062.703	-467889.22	118508.58	5.476379e8
H	1.0	15.144289	11.300814	5.987071	365812.8	-144963.0	-202504.56	-11905.691
H	1.0	11.715527	19.82628	20.089016	-95477.09	96007.53	591158.2	2.0400014e9
H	1.0	4.6504755	9.926154	11.648995	133927.14	-119312.82	50757.984	7.015133e9
H	1.0	9.813886	17.414179	8.379199	321982.66	77195.8	176194.0	-5.1951728e8
H	1.0	12.651138	3.0674078	7.9721885	38966.824	-56038.766	-414715.3	-290252.75
H	1.0	13.834378	10.771278	3.1572435	-4208.57	321042.6	230374.0	-343836.8
H	1.0	6.6147265	21.984785	7.3404512	140089.05	-102727.586	-273288.78	1.2961832e6
H	1.0	10.723969	8.934476	6.4615283	231283.69	-135972.36	41819.906	1.5039469e9
H	1.0	7.6912208	18.18578	23.835978	-414253.8	-260967.83	-31396.357	-502463.84
H	1.0	15.511884	23.99923	19.301903	209009.58	-16723.701	-82811.82	-4.588147e9
H	1.0	7.4061575	15.898189	14.502863	105334.94	33358.71	113224.94	7.639024e8
H	1.0	18.448458	13.213758	22.040216	75331.42	548389.0	158543.28	-1.8287062e9
H	1.0	7.315807	5.872069	0.66583717	222820.75	133282.72	-346957.6	51733.84
H	1.0	4.8346977	11.431689	8.868325	-42734.457	791362.2	577686.0	-9.852583e9
H	1.0	2.7312746	6.381074	22.753992	215682.5	270585.5	54057.117	1.1911146e6
H	1.0	7.931312	1.9236104	13.537801	-408213.88	253357.81	191379.11	-103004.586
H	1.0	20.368914	22.150455	16.944708	-505971.9	39871.613	-36793.684	-2.7193288e9
H	1.0	21.400759	12.661897	19.572779	327098.0	-312382.28	401060.06	-783021.2
H	1.0	12.058019	3.4487565	2.7789874	-557390.3	192484.86	189881.98	-2.0752984e8
H	1.0	2.2501688	6.6227856	5.549402	354085.8	324617.34	-183649.22	-1.8452503e9
H	1.0	8.290337	3.5950103	16.052092	-282382.53	-86483.75	-76556.05	3.0909664e8
H	1.0	4.967181	1.9999074	14.991447	-240891.52	626406.7	-132590.66	-1.0528075e6
H	1.0	19.259499	5.9644766	4.2095885	-109911.56	-359739.94	-192500.8	4.751337e9
H	1.0	13.8607025	8.547116	11.578943	590177.25	396051.9	85810.484	-1.1748652e6
H	1.0	17.037483	3.6954648	16.33783	-43967.875	-370986.0	21199.87	182550.34
H	1.0	13.154278	16.356813	19.007195	-40705.734	180058.67	121349.555	1.1739179e6
H	1.0	16.174744	16.01543	7.6508584	-47811.62	-238326.05	397869.34	-510815.75
H	1.0	10.626902	11.083696	18.739817	19132.424	-121557.38	-707604.9	394721.2
H	1.0	4.8152156	19.591621	1.479721	-735559.2	240702.75	-16755.133	-1.515416e6
H	1.0	8.432693	16.615894	18.51701	-260994.11	-811712.3	301380.66	-1.906629e6
H	1.0	5.691102	0.5685253	4.484525	51959.34	154162.7	-519568.78	-2.2133553e9
H	1.0	14.260539	1.3934305	21.368578	-80343.72	48199.62	329956.94	253301.1
H	1.0	2.768599	19.112415	16.122156	-250003.38	-18606.05	-668177.5	-5.203458e9
H	1.0	20.808	5.0869155	11.341928	-94350.266	50609.96	296474.06	-2.3123453e9
H	1.0	0.31396434	6.0006166	9.006295	-130637.85	341027.7	189643.08	3.9695068e9
H	1.0	6.455324	8.485005	3.3554642	-246168.23	-12147.102	88124.84	1.4992984e9
H	1.0	19.589079	8.327147	18.24357	-18277.908	461756.38	-359165.53	-1.5860499e6
H	1.0	0.563084	0.8224021	5.95614	-416549.84	395869.3	-555839.75	-6.9854356e9
H	1.0	2.7694917	13.297808	6.775565	-49567.46	102675.35	-207410.11	572065.75
H	1.0	20.722044	12.6423	1.088353	-8252.843	-164732.4	159956.75	5.674917e8
H	1.0	6.217757	20.764812	10.649613	-538732.7	-501706.16	-534975.25	-7.816785e9
H	1.0	10.92393	16.557108	19.072182	-157156.02	490563.4	159675.06	-424762.25
H	1.0	12.147776	14.495818	9.39246	-743507.94	121924.27	325247.5	-1.5114048e6
H	1.0	22.876629	19.391443	2.8440998	-136469.02	-453372.12	339726.5	-4.320938e9
H	1.0	16.40275	5.401294	8.076058	302668.0	325653.53	259388.95	-2.3316907e8
H	1.0	16.266422	23.643026	11.176855	-116634.45	25239.994	-276438.03	2.1287215e9
H	1.0	23.16725	3.255529	15.723222	-189160.39	718061.1	94796.055	-4.427762e9
H	1.0	9.354886	0.6586669	7.871446	360169.12	375373.12	33965.887	1.6299959e9
H	1.0	8.230956	11.316816	2.7335274	524013.66	-183738.81	74414.836	-5.4056407e9
H	1.0	11.347386	0.75698054	1.2417221	-46371.496	-2290.914	-347561.62	177504.33
H	1.0	13.971363	23.187824	2.868591	119527.01	190116.05	198756.56	-118256.445
H	1.0	1.3090906	14.107807	23.331524	319075.8	-59441.316	515214.9	-3.6954537e9
H	1.0	10.766697	11.76619	20.630835	-700577.9	131479.02	110285.734	-1.7011744e6
H	1.0	10.480175	14.817842	23.660494	-145714.23	7623.9644	-222096.8	-76822.25
H	1.0	18.384657	21.551342	6.1478295	-615213.56	-461827.88	83602.484	-694111.25
H	1.0	21.888765	17.299807	20.390184	415572.9	-16817.297	-69182.055	-1.8561521e6
H	1.0	11.653779	3.096037	0.7654063	271953.1	197983.38	282479.9	3855.836
H	1.0	23.015562	13.693833	11.855789	154338.7	-179174.47	-187101.97	4.347235e9
H	1.0	6.404844	17.177965	11.444876	19889.936	45983.176	-429713.5	-490333.5
H	1.0	5.6831293	21.119741	5.6056695	-95893.625	-321780.56	127478.484	1.2037165e6
H	1.0	16.428366	11.097677	14.467314	61798.508	395962.5	-257085.56	-1.7946746e9
H	1.0	13.079272	16.765614	16.91063	164778.25	-570691.75	195098.78	237729.44
H	1.0	10.998825	16.651016	10.0203285	229361.56	449817.66	-155640.64	-842234.6
H	1.0	22.462603	1.8615059	10.029075	270220.16	-34263.59	258955.34	-7.799897e8
H	1.0	11.622965	16.118025	14.292772	-275183.47	-75357.45	-549428.7	-4.1402186e8
H	1.0	13.142241	7.541497	19.414738	-208958.4	-235470.36	-27015.977	2.797182e9
H	1.0	6.576574	2.0162013	6.646299	-201367.52	-61326.043	309311.9	-91977.74
H	1.0	16.076792	20.58789	10.152367	300494.75	169088.61	167957.03	1.9092136e9
H	1.0	3.5649943	17.224455	24.003574	262339.25	90978.125	67973.95	3.697079e9
H	1.0	20.560966	7.2774057	5.001933	663173.3	234694.38	541260.2	278515.62
H	1.0	18.917234	1.3612887	11.364038	-176341.1	682265.25	28534.336	-1.039463e6
H	1.0	4.1568203	4.7715774	7.1942787	422471.94	469369.0	-7484.1772	1.00095514e9
H	1.0	14.611292	16.732935	13.826814	-62081.746	-270270.12	-446948.5	-337383.88
H	1.0	9.871947	2.4116075	24.04937	129397.0	193653.19	-1400.9315	4.5234074e9
H	1.0	19.480623	21.278122	18.690033	377413.62	66648.21	-134518.95	-419942.16
H	1.0	14.27804	10.36198	22.540878	-180747.36	14193.173	136284.83	317506.94
H	1.0	17.37278	11.577433	11.68639	53469.4	-219696.17	341870.44	-3.1456758e9
H	1.0	0.62402886	4.849424	10.662357	-372880.28	335643.75	-49097.61	-1.1678208e6
H	1.0	11.641176	5.174697	18.12361	-334438.28	119451.83	481692.22	-964104.2
H	1.0	13.576977	21.789606	23.676004	401991.84	91127.31	-80490.84	-1.0690948e9
H	1.0	0.23100412	7.702287	15.384022	-105758.445	-26695.375	-192638.66	6.2623584e8
H	1.0	23.519707	19.42087	5.585507	-40573.062	52664.18	-289637.97	9.049289e7
H	1.0	7.3953257	13.609147	12.433032	-269247.38	-488817.25	105294.375	4.453997e9
H	1.0	6.5778904	17.049387	19.01341	-376980.56	164630.52	-490644.56	-9.645062e9
H	1.0	23.63749	10.440668	5.5336766	-79463.52	265652.2	-105483.45	-1.7068484e9
H	1.0	16.641932	17.72292	4.0454435	513922.53	-438874.72	-187632.4	-6.8413445e9
H	1.0	17.216301	17.396185	11.06841	-144427.23	136663.64	-100535.695	-2.4201912e8
H	1.0	22.078238	23.237902	4.6102505	192693.95	-351512.97	678683.0	-8.5855887e9
H	1.0	8.9445915	14.754354	19.090517	210500.14	-226072.0	142308.28	38865.152
H	1.0	8.28568	3.7788718	0.9933504	268798.03	327637.62	-535664.6	-1.1220701e10
H	1.0	3.5063515	22.339212	0.32726684	387382.16	463624.94	313777.56	269283.97
H	1.0	14.586139	21.815598	16.238436	-159353.69	126995.97	-76666.57	-5.829215e8
H	1.0	10.078408	10.621411	8.680955	221581.64	-230844.38	-58982.04	799579.25
H	1.0	9.514001	9.304943	17.457441	-223697.98	311067.2	362297.4	-1.8270989e6
H	1.0	22.904688	21.146332	18.762777	466650.16	389820.78	192161.34	-1.0771862e9
H	1.0	21.423254	3.4428527	3.9532552	390318.75	-613298.1	-356098.66	-9.940229e9
H	1.0	0.38501996	7.096232	2.3749933	-171281.08	72547.89	263400.84	-5.3176346e8
H	1.0	14.163225	11.885011	14.191199	-91300.31	-213086.33	-127789.664	1.096047e9
H	1.0	5.4760094	4.419674	2.101004	266390.4	89063.82	-675344.2	-1.5526088e10
H	1.0	8.948079	23.9187	10.269824	-37788.625	43465.88	-98492.92	-213404.36
H	1.0	7.8365	7.7510476	20.112844	122323.85	199050.12	-154602.4	7.224049e8
H	1.0	16.171412	0.60955656	2.8438015	-28525.555	-158710.22	228244.44	326100.66
H	1.0	23.151138	7.0513234	11.937166	92511.21	-172288.12	-334514.4	2.6840207e9
H	1.0	7.5051255	19.104832	11.297263	246416.75	229682.06	-277864.97	3.8955702e9
H	1.0	22.924816	23.471426	19.033863	574522.25	-273548.03	-234415.17	9.0838854e8
H	1.0	17.016094	15.515185	12.325521	-131931.47	-129012.336	-22768.934	1.4962858e8
H	1.0	6.383264	6.514795	10.213308	107122.94	-451441.56	249369.38	3.1846333e8
H	1.0	23.568102	11.903181	16.705673	-351876.5	-295990.2	-55829.785	2.7263498e8
H	1.0	2.4273858	7.1222205	18.545252	-185112.03	-290212.47	-97761.44	5.308378e9
H	1.0	16.197887	15.688901	22.292915	227282.11	-116599.266	25903.387	-34725.957
H	1.0	4.2517357	15.681985	18.084272	-84400.24	-26985.828	-144433.97	889931.2
H	1.0	10.441971	6.3349504	4.87933	51757.074	-182723.66	-103174.61	-99919.12
H	1.0	4.9715915	22.377075	1.8207184	79767.12	152767.34	-55165.4	-9.869653e8
H	1.0	13.782868	20.469315	13.703959	-232734.36	658953.9	261272.94	-1.2504889e6
H	1.0	15.36263	5.4391103	0.7078983	-253640.95	163426.95	-314318.97	-2.8804116e9
H	1.0	15.234078	1.6944809	6.2271214	-722096.75	-73868.86	268509.75	-2.290653e9
H	1.0	15.88302	0.527914	9.3855505	-14451.204	380705.8	-442804.28	-299896.6
H	1.0	16.616259	8.30348	21.628614	143974.62	93403.34	414021.47	-1.4331639e10
H	1.0	22.335846	23.299622	6.5404844	420273.97	278008.4	112453.18	-578675.94
H	1.0	12.178963	5.6267586	8.826879	-57934.56	544044.94	128661.7	-445784.94
H	1.0	11.834701	6.263805	21.290201	655073.9	-112714.84	31923.527	-1.7164366e6
H	1.0	19.07517	9.255086	23.058298	375249.62	-30928.676	-78374.66	-525615.7
H	1.0	10.813514	18.54275	21.36597	-87092.125	99353.94	206955.2	7.586885e9
H	1.0	19.287415	19.331541	1.3760095	93516.25	70326.07	-20682.81	-957935.94
H	1.0	19.020388	13.805197	19.281843	146745.33	-253153.28	150398.69	1.886566e6
H	1.0	15.054636	8.124478	16.690268	287482.56	14633.261	27691.104	-274813.78
H	1.0	16.164228	4.9239054	13.145166	192140.44	41459.66	-142645.83	-1.1005179e9
H	1.0	12.139871	22.066858	14.598824	724845.06	178529.9	107141.82	258290.48
H	1.0	17.288105	8.271592	4.1120615	-344498.5	44196.08	-54427.695	452527.1
H	1.0	18.888819	21.99253	2.048558	-198957.28	151524.17	125357.81	-5.380545e9
H	1.0	0.66890335	15.775323	6.142187	62008.47	584000.2	-164634.47	-611038.75
H	1.0	12.1834	9.787627	8.496248	-242880.23	-39923.613	-187528.45	-9412.651
H	1.0	13.36994	7.2431087	3.7079551	-7781.5327	-187796.58	20352.594	129643.57
H	1.0	7.718856	11.23228	21.016472	-134152.52	267379.47	-903796.56	-1.3916242e10
H	1.0	6.131987	16.199425	16.82417	55831.594	438410.28	214966.45	-3.1119176e9
H	1.0	9.935141	18.640318	23.215025	4445.158	-163968.81	-166923.53	8.180542e8
H	1.0	23.209267	9.792953	15.083087	98845.2	63725.523	-5948.163	964177.94
H	1.0	7.3319726	0.1676709	7.8041444	-21357.22	37700.332	39695.184	141756.31
H	1.0	20.461903	0.57534474	3.9874523	349836.34	510787.12	618160.06	-8.095095e9
H	1.0	19.807114	18.420565	21.586838	-302937.7	-972916.0	362149.2	-2.9026172e6
H	1.0	8.675583	1.8621057	2.2343283	-858359.6	6789.816	19527.871	-1.6298442e6
H	1.0	14.382859	3.5186806	16.077496	50214.62	209456.4	-236889.55	1.1590008e9
H	1.0	4.705644	9.801045	14.147473	-294992.44	-11595.906	52112.945	515301.44
H	1.0	8.689439	13.979946	0.9048159	130887.375	-354764.0	-589987.06	-1.092711e9
H	1.0	10.535443	7.8458	3.1209223	-13606.255	127531.195	-21039.14	2.0117085e9
H	1.0	17.992798	4.946489	0.35152927	-261222.81	151726.02	-607939.4	-4.9410744e9
H	1.0	10.983342	21.840288	1.8701259	-199498.81	-452227.2	-68873.305	-2.327674e9
H	1.0	12.412139	14.5366535	15.359349	-138889.23	-554751.94	60980.355	-4.7662505e9
H	1.0	7.2598696	4.6401095	18.763178	156940.98	20999.42	-582734.8	-6.948674e9
H	1.0	6.6103463	9.489773	15.572138	41394.008	43984.137	-279498.47	-1.4240749e8
H	1.0	16.197607	13.83332	20.796345	181593.3	3373.199	277968.47	-5.4866017e9
H	1.0	13.405066	5.178833	2.2484863	665740.6	22180.03	221145.22	-5.0785034e9
H	1.0	10.716754	22.08172	24.000027	-159159.89	197164.02	137072.0	4.7119555e9
H	1.0	15.049881	13.728495	0.039482575	-240324.45	-57760.668	303191.22	53465.508
H	1.0	5.464901	19.626287	4.060805	482205.22	-470783.2	-388833.25	-394174.5
H	1.0	9.125387	5.5443826	2.4656627	98686.67	-178308.31	-467689.12	-1.0629583e9
H	1.0	23.716238	21.76489	14.667312	119441.53	81317.47	399456.1	-3.0020923e9
H	1.0	2.236082	16.812435	1.8080518	32707.281	-252579.14	649933.06	-1.479623e6
H	1.0	19.471802	11.860602	7.5916147	-290651.25	265601.7	8221.784	-5.033847e9
H	1.0	14.897788	16.339462	0.100511394	-7498.117	-318454.97	-248619.31	-339164.25
H	1.0	9.317419	13.257157	3.8408692	-32642.629	-303006.38	-34669.59	199297.81
H	1.0	2.982304	18.240843	21.822306	128943.734	149931.66	-60285.695	8.925452e8
H	1.0	19.77626	6.849166	12.591999	424043.16	-374206.0	-135.51854	-7.333236e8
H	1.0	11.361899	16.789688	5.7134085	68305.13	-16104.84	174840.95	448542.3
H	1.0	19.672382	23.439417	6.3204136	76023.67	-313820.25	66450.54	419807.03
H	1.0	8.075582	15.980529	20.790619	-208739.16	187577.14	34926.777	3.1147901e9
H	1.0	16.72962	6.455746	23.468792	121946.695	-243696.44	125576.77	-1.0390307e6
H	1.0	8.716821	11.208819	5.5746393	255376.89	-155687.52	-4812.415	-9.6734317e8
H	1.0	6.6556997	2.8181767	17.67875	548961.56	40818.996	-115425.32	1.1707579e9
H	1.0	4.558975	6.810159	6.568808	-116092.516	-365092.3	-273136.53	-300602.66
H	1.0	15.148647	7.251383	14.628035	-132271.44	-631801.06	-37114.727	-7.185027e8
H	1.0	1.0600233	13.756663	12.171785	-502112.66	176700.72	-302446.62	-1.223984e6
H	1.0	21.175686	11.0583	23.686546	212743.27	-441304.34	22902.209	-658965.7
H	1.0	14.003	1.3342712	11.071466	-144870.0	-279628.8	-6579.7075	-8.538487e8
H	1.0	4.7958384	18.813158	7.9227934	504940.16	298360.12	266754.25	-2.527362e6
H	1.0	9.073667	16.312262	10.008598	-161430.52	-65929.6	2557.424	4.8590326e9
H	1.0	2.330705	20.780045	23.42151	-417478.78	331595.78	-115845.72	-1.2362361e6
H	1.0	8.671838	9.282447	3.2211075	28081.574	-250400.08	-89909.32	504829.5
H	1.0	22.628824	15.421136	23.976955	35069.066	-89756.56	-315451.6	5.6757376e8
H	1.0	18.987593	1.0907559	5.2303133	437320.6	-190101.69	83206.83	8.047129e9
H	1.0	12.259022	8.437169	1.6886965	34114.7	-96567.48	-371014.1	-148809.67
H	1.0	3.0121067	2.78975	10.057738	-150571.44	-802373.75	-400153.28	-7.0316774e9
H	1.0	3.6769867	18.257809	11.670194	288580.28	-20811.79	-126355.28	5.089069e9
H	1.0	8.435245	19.554438	6.944765	32158.686	-467496.28	161885.2	-5.014393e9
H	1.0	18.904428	12.710188	12.799201	32553.656	160441.77	99950.984	-9.8389696e8
H	1.0	18.894003	17.516153	5.04689	359686.3	170045.69	200176.77	-1.461143e6
H	1.0	6.794406	20.76348	12.683693	149685.25	-667802.25	-156908.55	-1.0811265e6
H	1.0	3.7272503	7.901886	21.363153	19043.97	156249.89	407874.88	-1.8616294e8
H	1.0	10.111369	4.9283733	8.306114	283390.06	-199047.47	-19381.076	1.8237006e9
H	1.0	20.39916	8.967777	3.9273794	130706.57	79790.28	-340073.75	6.4507514e8
H	1.0	3.4181	14.296085	14.40561	384019.53	-536.7615	190755.55	-1.9880396e9
H	1.0	21.233164	1.1534659	6.5872693	504494.56	-270598.72	40768.566	-1.2068254e6
H	1.0	5.7555823	5.269727	21.973442	-444429.3	-598921.75	-395699.66	-830647.8
H	1.0	19.96735	3.676104	13.021891	-47669.844	-294601.78	-108997.63	-2.1460955e9
H	1.0	0.762648	10.57488	14.294512	227398.25	59762.87	-98225.914	10259.007
H	1.0	20.761053	11.855631	3.9937394	335582.84	-520776.78	-606513.25	-644164.06
H	1.0	9.769342	0.9727609	14.462363	-672630.1	-182009.92	-173402.4	-5.1518986e9
H	1.0	12.7598	22.551376	18.793333	327266.0	-81372.37	327828.22	1.3391914e9
H	1.0	6.8498707	10.402555	6.206192	560278.1	-315045.56	-497725.9	-5.8908283e9
H	1.0	1.9122958	11.004848	7.065142	232671.2	17096.598	324207.03	-496458.2
H	1.0	4.612818	22.623	14.391187	345261.78	-369770.03	-144183.61	-98814.43
H	1.0	1.7173688	4.32973	19.361712	354708.75	171746.0	87453.75	1.5373356e6
H	1.0	4.2922444	5.4546566	3.7168643	-397196.84	279717.22	39828.066	-1.4060547e9
H	1.0	3.574859	19.380241	23.964342	90247.12	-269531.28	153098.03	1.2276464e10
H	1.0	7.888796	13.250922	8.263054	-480383.03	-154655.1	-262111.8	-704581.9
H	1.0	16.75593	15.296691	15.307342	-122560.58	-387211.84	828219.3	-3.6595822e9
H	1.0	20.676558	5.058481	8.280496	18463.25	218665.6	-571955.6	-267685.9
H	1.0	22.933615	17.844818	23.532654	-54570.035	14454.082	509025.78	-12791.082
H	1.0	23.156532	8.374901	21.662275	181674.25	367387.88	141460.53	56355.15
H	1.0	9.701499	6.4109755	17.290773	-275862.3	41765.406	311332.9	3.5996997e9
H	1.0	4.8734865	13.027727	2.0622897	157099.95	-155562.58	-583308.56	220272.25
H	1.0	22.874683	17.523293	4.8732715	188142.95	353069.03	395261.75	-319950.16
H	1.0	18.353525	16.289528	7.5316534	90690.984	116883.83	48176.65	890088.6
H	1.0	20.879892	8.731216	1.3094059	340429.25	691672.06	295693.6	-1.1960408e6
H	1.0	4.9979177	3.3095927	21.800001	42736.89	666520.56	-26892.182	-3.7300754e9
H	1.0	3.1868963	9.27549	17.736233	616735.1	-136567.58	191158.56	162553.16
H	1.0	2.002731	11.557808	23.795303	200584.7	209138.3	-163896.0	8007.014
H	1.0	3.3166819	0.9044399	5.550107	-163077.64	14614.775	-62393.508	572030.25
H	1.0	7.60468	14.520599	4.9005446	-441181.22	99217.85	454322.97	-604872.94
H	1.0	22.908894	17.248083	1.4731166	-290369.6	170436.94	-99775.336	1.4034433e9
H	1.0	1.8210392	12.059841	13.2139435	-124951.516	-107605.15	153337.2	791200.7
H	1.0	1.553083	22.81613	18.791727	-36027.94	-24974.96	191602.27	-112420.09
H	1.0	21.019737	11.501072	11.708315	475944.84	-298989.44	401952.47	-624422.1
H	1.0	18.981346	8.205618	1.9657542	-231750.22	-124031.46	379289.16	426200.66
H	1.0	14.208999	20.032099	9.345478	-249782.28	-66910.26	175219.11	201269.03
H	1.0	7.414459	11.608398	19.042284	-508119.03	-382501.47	-280071.94	-716740.75
H	1.0	9.96555	6.9663863	0.5165778	-481624.0	47040.406	-247153.77	-4.819424e9
H	1.0	23.179003	4.26831	20.68033	679032.0	-746039.7	8482.688	-8.2045425e9
H	1.0	18.244064	11.831455	20.215029	-370842.78	-338190.34	-141000.14	-3.7613622e9
H	1.0	2.4067695	20.41702	10.876536	320842.12	-600577.1	-193949.73	504252.16
H	1.0	5.0149136	23.199697	22.256836	-66664.8	-94696.82	-633437.0	-5.4858925e8
H	1.0	19.012554	21.329657	9.040316	37963.266	166535.25	456628.0	-611180.3
H	1.0	6.655916	19.084732	19.01871	41140.555	7266.227	401001.56	785874.3
H	1.0	2.1243603	15.91065	16.487345	-322543.6	-299736.84	358485.94	291287.56
H	1.0	14.220608	22.394857	10.910558	-117028.14	191176.47	-366518.6	3.7998124e9
H	1.0	15.170386	17.789402	21.285063	22299.76	276227.5	-570919.06	-758501.6
H	1.0	10.4301815	10.137165	4.9493704	198568.66	-143063.12	-155174.73	1.05851456e9
H	1.0	23.56138	8.47536	0.66201127	35874.637	-174197.03	225751.97	155315.78
H	1.0	3.3852131	19.692959	13.261799	256984.28	81463.76	-806586.3	-1.3397122e6
H	1.0	6.7161155	5.417922	13.411156	436015.88	-110976.07	-76716.92	691653.44
H	1.0	14.21096	0.19329245	0.33246	122486.24	-161487.31	-8998.655	-1.2747222e9
H	1.0	19.123064	6.2772956	21.367939	-239371.95	-58939.125	-32665.072	3.4082798e9
H	1.0	19.943127	2.822721	5.5203624	-338420.56	21756.033	-270299.38	-3.754945e9
H	1.0	12.407039	21.703312	12.549978	91331.55	-133283.27	-76149.44	-1.176159e9
H	1.0	20.68569	3.4572325	23.016294	387909.8	695545.56	218520.25	-9.18947e9
H	1.0	17.417824	22.983313	9.532581	202212.27	367972.03	-126231.66	-435593.72
H	1.0	23.203768	8.336415	13.476315	-432387.62	338040.06	213823.89	-1.3234602e6
H	1.0	2.418917	0.9338615	3.7488797	-61337.31	216059.55	-43512.61	-2.231445e9
H	1.0	6.092186	3.9429574	6.9508047	-326130.2	-346669.22	-48362.434	-1.2933165e9
1000
Lattice="24.079964 24.079964 24.079964 0.0 0.0 0.0 0.0 0.0 0.0" Properties="Particle Type:S:1:Radius:R:1:Position:R:3:Velocity:R:3:Entropy:R:1" 
He	1.0	6.556597	2.2970066	2.961447	-31564.281	15112.134	9417.265	220328.55
He	1.0	2.355605	16.128439	10.333625	392.63943	1963.4276	1462.2002	27948.623
He	1.0	2.294888	3.422978	7.1838284	-2600.502	-799.62823	811.9274	664728.2
He	1.0	1.0498855	18.870579	19.531889	3520.1633	3761.406	4124.9478	-80.12895
He	1.0	20.795202	10.583339	21.353886	38446.598	14484.665	57758.617	1.5556426e10
He	1.0	4.64584	12.571555	21.701857	-6365.8994	-3295.2817	3851.7092	3.6232345e6
He	1.0	2.2234223	8.364732	14.227635	4897.6304	1168.8296	-11416.525	20326.664
He	1.0	16.56096	23.762793	7.3224664	-1356.9208	-1557.8079	5770.4785	28.961002
He	1.0	7.450886	21.36226	22.092464	-4311.5244	-1205.1979	76.99342	105717.26
He	1.0	23.079302	1.2177442	16.519644	1383.4387	2431.7048	22734.32	1.4737034e8
He	1.0	6.0270624	16.55584	6.8811054	-1912.5441	3102.5098	5393.3574	2.5915286e7
He	1.0	18.39179	22.240381	11.351345	2968.141	-2472.5686	-7074.862	18686.934
He	1.0	16.6027	6.302163	11.752489	16125.466	8644.562	-12565.83	113843.266
He	1.0	15.512373	5.8219857	10.155043	-12310.017	-1613.5869	-21463.432	2.5443315e8
He	1.0	2.8951187	14.2011	11.000176	-4269.8833	-44.559772	-552.7595	342803.25
He	1.0	1.9045713	11.312753	1.9101061	-5782.1167	3896.4678	-1503.32	1.5114815e9
He	1.0	8.293729	5.176896	9.628297	2015.8236	-9130.256	2692.2964	-140.19334
He	1.0	11.143002	2.7812526	21.397259	2299.405	26.596855	-3572.5623	7214.4336
He	1.0	23.277548	16.994875	15.782137	4975.105	175.56523	5973.8965	-419590.7
He	1.0	24.06646	10.35096	11.917089	6111.467	-3151.0679	10.432458	3.242614e8
He	1.0	14.306667	4.427658	9.370482	-477.0928	-1346.6309	-3876.6877	20.344227
He	1.0	9.052363	20.448746	3.102291	-3048.3281	-3560.236	206.31905	1.5179489e6
He	1.0	7.3148766	20.223907	5.0471864	3822.8245	-2140.3447	2284.5469	803061.5
He	1.0	17.901716	14.983463	20.555752	144.0085	3575.247	-85.21266	1.0736729e9
He	1.0	8.533092	3.3890283	11.91919	-669.9553	-1737.0284	-2761.4065	69.33184
He	1.0	0.56042415	9.633689	3.261161	535.4288	139.01227	3549.7776	-179892.9
He	1.0	8.686912	20.430067	0.5738036	-1461.2908	-2963.9905	-552.3114	79725.03
He	1.0	18.789888	17.561525	0.64610535	15511.841	76286.234	-55864.16	2.6602852e9
He	1.0	22.254023	22.86048	16.044886	-39353.145	36885.42	-16168.0205	2.0827529e9
He	1.0	20.421173	13.550636	6.8877487	8862.467	6074.8916	4958.351	1959.3608
He	1.0	20.629951	7.6743917	10.951585	7167.3286	10714.354	-15330.661	1.474734e9
He	1.0	21.2194	7.3220835	18.78843	-293.40594	2129.051	-4155.01	3.5706998e8
He	1.0	17.289598	13.618312	10.987594	4534.297	3004.3997	-932.6451	281.4183
He	1.0	3.8363187	11.203621	1.4070994	-1880.6571	-77.95162	6179.153	1.1996014e8
He	1.0	15.590204	18.633701	10.015928	-531.99036	-2538.7874	572.37897	575366.2
He	1.0	12.261636	7.8723574	14.602796	-6450.286	-3452.5032	-6331.5303	40887.71
He	1.0	9.136765	16.166506	4.4344335	32258.887	-9599.629	-3757.5017	1.4262216e9
He	1.0	2.43612	22.346457	3.0989146	-7271.734	5212.8574	4563.79	3909.0735
He	1.0	4.8910656	18.32451	22.710625	-1003.809	-2563.5977	-3739.114	-14.1608515
He	1.0	14.327102	4.870345	14.054846	10299.827	-3556.8562	677.4591	-1.0656022e6
He	1.0	15.8139515	4.150278	22.19829	-772.4152	5025.0957	3971.7805	3.1618973e8
He	1.0	15.50361	21.642778	18.591225	4864.254	229.40604	489.53787	165289.6
He	1.0	18.556269	21.17034	14.991359	-1379.498	-814.9278	-855.7639	795684.94
He	1.0	11.543159	7.743344	8.086289	303.92075	4587.487	-2308.0874	1.148751e6
He	1.0	13.119154	23.558136	22.242529	-877.4462	-223.07674	4808.3433	6.2194148e7
He	1.0	15.697913	18.151634	5.7790117	5247.719	-2326.9185	-5239.254	-20.64296
He	1.0	6.6879473	23.63948	17.012697	-924.7574	-4674.489	676.48645	1.7544886e7
He	1.0	8.593279	22.630037	11.83845	-335.83557	4456.954	-2890.4192	756738.44
He	1.0	21.918074	19.055162	7.679744	2338.295	-2075.1482	-3871.037	-115111.9
He	1.0	14.730467	6.233778	22.918085	6153.7593	41828.168	-46149.715	1.1165906e6
He	1.0	17.336538	8.629006	17.896378	1291.3295	-4618.449	-770.9933	168898.16
He	1.0	11.705129	15.955118	3.7522705	-6723.4995	3471.74	-6308.4355	2.2544356e9
He	1.0	12.298521	19.921696	8.489479	-10552.485	-5673.0015	-4446.4673	2.0766048e9
He	1.0	4.316074	1.9387795	3.713876	-941.8554	1354.7533	-4668.205	578032.8
He	1.0	6.4323416	7.6523995	17.9067	5486.7676	3941.4875	-6162.757	77137.484
He	1.0	5.781906	3.0423179	0.69474095	13397.328	-35170.64	-30914.277	5.5648113e9
He	1.0	14.904898	4.8363085	6.2226815	7414.904	-395.47635	-549.35284	-22.03587
He	1.0	15.509537	21.882456	12.654572	-12549.888	-6433.095	-8769.451	2.0870854e8
He	1.0	18.071863	5.173079	9.641617	-66.13977	-5889.866	5632.0254	-176030.03
He	1.0	23.596487	18.75881	21.80947	1506.033	-2054.3784	1497.2456	8.218865e6
He	1.0	13.370489	19.271885	4.3172445	494.5637	1983.0315	-1832.611	1.7299794e6
He	1.0	3.2624223	21.024982	1.849527	4273.3716	-3619.4539	29.898464	4.9343562e8
He	1.0	21.952095	0.0031200566	1.8407152	-3677.9575	3498.2092	-2713.4412	201703.4
He	1.0	12.081306	10.227749	16.402927	-1328.8956	-6224.713	2359.8918	21.197914
He	1.0	17.613123	22.989014	16.317797	6829.637	-1681.102	-3779.117	-32.1388
He	1.0	5.534563	9.746061	23.923622	3401.5776	-4526.218	-1089.9268	3740.7185
He	1.0	18.46877	10.044385	3.4705288	4035.9243	3617.9836	1172.4219	3147.5723
He	1.0	22.430351	14.285484	17.394333	-426.5759	1931.9344	-4246.8438	89.650635
He	1.0	3.2708704	16.79506	6.0021	1567.904	2524.34	1914.0222	137264.84
He	1.0	10.807393	17.994122	3.2997541	-1498.3494	6250.8145	-4428.147	-7.051397
He	1.0	16.801647	20.387838	0.77317345	6550.0337	-1149.995	-2871.5945	58.423767
He	1.0	4.185379	21.960356	9.502866	-209.5222	2403.1997	9782.035	-227.87276
He	1.0	22.647177	6.226675	2.2329333	-52835.836	-20683.188	-10849.893	178700.7
He	1.0	22.817778	5.0405774	6.8682213	-3101.3784	-1774.5516	-2851.2124	404192.62
He	1.0	6.6264186	7.987032	8.122338	-8905.019	-1584.9812	1771.0001	415188.72
He	1.0	13.97232	17.846148	11.395712	-2141.6897	1267.2662	7940.2344	5.4873035e6
He	1.0	2.3475263	19.481424	6.936326	1965.2888	-4553.4937	-2634.7705	238.64908
He	1.0	2.5294213	23.472916	17.097565	1160.8527	10853.424	17479.531	207105.67
He	1.0	23.878471	21.025692	10.518155	-599.91766	2934.8591	-5158.5933	762334.3
He	1.0	4.567822	24.078737	10.696978	1285.3002	-66.18148	-4068.401	30621.373
He	1.0	9.802043	5.190489	12.69489	-2986.7974	9790.502	738.9751	1401.9664
He	1.0	23.066519	1.5823686	21.371996	-3388.1067	-7666.1255	-3348.306	2.0149872e8
He	1.0	13.568049	21.250319	7.0002437	8626.856	-424.5477	-638.37036	77.25917
He	1.0	2.2390342	3.0724711	21.088514	2215.402	3560.0735	6732.715	207222.31
He	1.0	17.598793	19.043308	21.581532	30146.562	-24541.494	-29370.271	265884.2
He	1.0	4.394547	8.659735	8.837543	-3074.5242	-3449.7617	3366.5894	59.26349
He	1.0	16.7691	23.010159	1.4355252	-2981.6155	-13925.39	-4838.883	6.395147e9
He	1.0	9.924546	4.287027	17.650417	-4021.8762	1023.4144	1602.573	53900.35
He	1.0	18.630247	7.211937	5.5984516	2292.5051	14507.23	-44411.32	485441.7
He	1.0	15.030212	1.8987752	18.969078	-4316.793	-1061.7944	1259.3265	269.52414
He	1.0	16.270184	10.089709	16.293705	754.26105	9297.065	-3474.491	1.7913677e8
He	1.0	0.9197041	4.489488	14.785278	-8403.873	2559.618	4445.909	2.4534495e9
He	1.0	4.2273026	23.03194	3.80788	4383.8594	-3991.527	1917.0466	2.59539e9
He	1.0	20.136522	20.79246	6.725587	1361.218	827.65674	-4209.9395	12134.358
He	1.0	23.690107	12.807971	23.514961	3119.6604	-3089.4424	3046.3933	3.412079e9
He	1.0	9.207699	14.848772	7.8097167	42223.695	58469.52	-8671.168	397836.0
He	1.0	22.19202	4.358925	10.056456	4131.261	-4212.3027	-6319.735	299040.38
He	1.0	11.732672	24.001257	15.967814	-7699.034	41042.777	25645.14	10906.344
He	1.0	9.267638	22.057144	22.546026	2834.598	4673.5103	608.69745	1.871057e9
He	1.0	5.4977746	3.7994077	15.6939535	392.88217	3430.5857	-368.5521	5.12159e7
He	1.0	18.103365	23.284273	18.31252	9373.358	474.71124	-2315.689	-200.63612
He	1.0	6.6784177	14.851845	8.978025	2915.041	-6441.896	-336.83722	-32.72468
He	1.0	19.758389	10.79444	10.264316	-4165.427	10360.26	13090.167	2.0325885e8
He	1.0	11.244019	23.322882	12.072637	674.5864	5562.928	-1091.472	9.681256
He	1.0	16.61997	19.63819	4.758836	5180.4854	2989.5154	1044.4581	5.6568435e6
He	1.0	1.6320324	14.928103	13.715873	4595.892	18077.555	37467.375	5.8650086e8
He	1.0	12.608269	2.9811032	18.472296	4622.616	-2618.7754	-2657.5212	104.81525
He	1.0	10.812267	0.11942519	22.622643	2329.0605	-333.3742	93.05195	1.2297568e6
He	1.0	20.951086	14.508015	10.362555	-919.7245	-13866.442	5055.338	1.2101104e8
He	1.0	4.803324	0.02471899	7.1360946	1420.401	-4543.7495	213.8205	693778.4
He	1.0	5.6059413	8.271817	5.5840735	-428.31375	-312.5743	6894.2812	266787.16
He	1.0	20.285002	2.7842913	1.1011512	416.3372	-72.02487	1341.2539	4.568952e9
He	1.0	9.035324	13.099522	20.352024	-65803.43	55405.082	-32775.137	1.5734746e9
He	1.0	9.407209	9.97988	20.96896	-1687.1099	3315.6042	-4954.1133	195542.8
He	1.0	11.538554	20.307755	15.9831	46.28923	1570.0645	-5019.175	12865.931
He	1.0	8.523941	0.37822393	0.19799241	-1560.195	-2300.8518	-2371.0154	762692.75
He	1.0	1.6299543	2.142856	18.964432	4190.0034	1175.1062	1905.4875	8.4131565e8
He	1.0	8.184992	11.2	7.5160975	4572.0	-6225.2305	-3355.484	96780.16
He	1.0	7.952608	6.8828797	5.9453397	1891.3671	291.40912	3301.3567	36.0941
He	1.0	18.94524	17.225233	16.125366	-3180.243	-229.1194	3438.1597	32.44356
He	1.0	1.734639	23.735153	10.647071	-3609.6653	-2351.5093	5122.6616	352356.28
He	1.0	12.232463	2.0366786	11.890655	3186.9587	-4240.6255	2159.0742	193516.05
He	1.0	17.28493	22.750431	12.932376	11.951188	9367.799	11981.515	1.5287926e8
He	1.0	21.950535	21.178635	23.0381	6912.937	20118.373	26826.924	253856.69
He	1.0	19.952383	4.5302444	17.394602	-6575.652	1613.271	1532.5469	-271936.47
He	1.0	9.150311	2.7220883	21.51095	8839.718	-55727.406	-63340.24	252331.7
He	1.0	1.1519406	1.8378873	1.0430417	7802.2075	-3950.0388	3199.2288	-281900.47
He	1.0	4.694168	21.257643	12.048047	-4901.769	-2542.678	-442.03052	-89763.01
He	1.0	19.481186	0.31844756	15.904159	9719.672	-16385.473	-10114.293	1.6418712e6
He	1.0	3.116624	4.5497193	13.12703	-4668.138	4933.747	-2152.481	-6.706326
He	1.0	20.31396	18.92961	10.667386	4143.7754	5780.3433	8278.823	-1.4160208e6
He	1.0	8.962659	4.0434546	14.10031	5525.5938	4512.773	-272.7368	2369.9685
He	1.0	8.663941	11.374105	0.40857834	26.83008	1670.0015	-1384.7241	45569.914
He	1.0	1.3956354	14.85703	18.609625	2458.657	4065.8284	7345.2397	4.1601712e8
He	1.0	4.697031	17.88015	15.197296	2504.0015	-800.5479	-5554.161	-236919.81
He	1.0	14.563914	12.974167	10.553726	-1288.0336	-560.269	-4385.367	164659.31
He	1.0	15.004472	17.268719	1.9065682	1616.5131	2033.5555	2410.5137	715538.44
He	1.0	2.2111776	7.0162334	10.213924	-911.14215	4336.4326	-334.8307	146356.03
He	1.0	23.48313	2.9401214	19.0124	-115.03106	3392.0088	-7739.17	-172893.9
He	1.0	22.81499	1.7597656	0.9192097	812.6767	75.71263	-7109.865	146377.97
He	1.0	19.383007	3.2903047	8.50097	5620.3657	-45.03742	-7739.257	4.56839e8
He	1.0	6.9746575	14.1732025	23.165161	-77.20624	5385.2266	-668.0611	-108063.12
He	1.0	13.416337	0.24836712	19.958078	546.45856	1442.3978	-954.9045	141.01576
He	1.0	10.391426	12.365112	2.2309563	-2058.791	-5326.619	9325.239	-1.1449094e6
He	1.0	21.772297	17.82551	18.432316	-2013.19	4050.5696	-33277.586	39475.992
He	1.0	3.248094	7.8583007	3.8648305	-389.49976	7415.9165	1772.8973	479353.06
He	1.0	15.659316	14.662556	6.200135	-43405.504	-86398.99	-95473.3	565377.25
He	1.0	19.450686	3.4057615	10.618308	-2750.667	2008.3279	-1598.789	29.929667
He	1.0	17.366701	14.325852	4.7383814	342.09732	-1510.5168	-335.51797	388269.88
He	1.0	13.439417	18.858849	21.196667	3479.0588	-3499.7214	3237.5127	4.352867e9
He	1.0	18.722336	10.119701	13.103174	-1584.4788	-2136.059	5130.7515	113.53158
He	1.0	9.767445	12.441969	6.729433	2322.4116	2767.0266	-1490.5509	1.31767784e8
He	1.0	14.053579	16.227571	4.283072	-2913.3606	-3933.7983	542.1763	600159.94
He	1.0	7.865767	1.1525737	17.281164	1867.7615	6710.189	1390.0745	1.1565756e9
He	1.0	5.878835	12.333257	12.430681	-4837.311	2611.4502	-6140.872	539463.2
He	1.0	23.00448	0.83308023	14.563584	1503.1951	-7344.64	-13848.962	617889.2
He	1.0	10.532923	22.005732	9.699607	-1874.3132	8396.989	2155.9382	-178142.56
He	1.0	8.114712	18.648798	20.660515	1421.5421	4140.744	1894.2026	0.7250289
He	1.0	12.69847	9.194843	18.181763	-1662.514	9323.925	-5199.7236	270.28415
He	1.0	4.219119	6.588709	9.655482	-1932.7184	-9.325841	-10672.885	-12235.105
He	1.0	22.188879	15.404384	19.347158	6066.1294	2430.1597	899.993	52.872192
He	1.0	17.87692	11.451893	8.910655	-3465.925	4936.1665	-162.74144	1.2660635e9
He	1.0	7.63804	9.913144	17.993862	-1078.6699	-11866.756	-7971.491	8.2381165e8
He	1.0	4.233283	2.2679472	7.1779246	-562.819	-3064.5383	3277.322	315.0356
He	1.0	14.564201	6.692991	8.4216175	-3542.0244	-402.34494	-1125.0842	469370.25
He	1.0	2.8022165	4.667426	8.946389	-4296.283	-926.62366	-6899.982	-326495.4
He	1.0	0.7547045	7.8304176	4.7909074	-28742.242	33111.918	-17403.904	963724.4
He	1.0	11.305409	13.24245	12.550949	4743.915	2883.3794	-278.89432	603392.56
He	1.0	22.195347	20.100277	15.143993	-1506.3055	-1788.4866	-1528.2256	4.5498796
He	1.0	9.656629	14.517668	16.361225	-1852.1283	-6968.592	-3093.9453	-690042.1
He	1.0	4.323214	14.228275	9.327147	295.95407	-3326.03	227.06326	203.1493
He	1.0	10.89364	17.862556	0.91979516	-14181.495	755.8819	1713.3676	443870.06
He	1.0	14.241235	22.43785	20.851791	4494.677	-5218.7905	4878.7075	-340280.72
He	1.0	10.188751	22.32416	13.537044	3824.5698	4941.9487	4713.2515	86.36206
He	1.0	21.006271	16.040668	22.56136	22565.18	9882.092	7418.4453	823633.0
He	1.0	9.915341	19.084381	4.776219	-2625.6821	-4842.97	-7869.0874	-991482.56
He	1.0	22.703547	3.26653	22.917868	9602.448	-3365.1418	429.658	3.8375818e8
He	1.0	13.295297	13.680224	12.542672	-9353.855	-1162.266	-1439.2673	-1.0671632e6
He	1.0	12.837871	18.151999	1.2618936	10601.105	1734.7406	2120.045	75711.11
He	1.0	9.469693	16.124971	15.091042	12769.5625	1871.5308	-5974.5215	3.5070485e6
He	1.0	13.416388	4.2914634	4.7942524	1736.2776	3756.5198	1446.7515	9.218539e7
He	1.0	13.023532	14.277191	3.9694064	3311.4785	6835.319	1138.8666	4.394297e9
He	1.0	21.142397	9.658019	18.271284	-7365.094	-185.30473	-2642.241	1.2522035e6
He	1.0	4.5682287	7.9949145	19.324398	-4133.791	462.61823	5404.6997	17375.078
He	1.0	22.671339	8.089035	5.108703	-1727.181	726.92834	1353.3604	-8.990144
He	1.0	17.62099	3.718492	14.18184	9414.186	-13787.092	15753.606	6.347295e7
He	1.0	3.9796054	1.8841231	18.315895	6727.3994	1890.6167	1881.638	36.110126
He	1.0	9.516303	20.689812	11.132019	684.0715	155.50299	-3453.9526	93.185
He	1.0	0.11108283	15.359349	16.8938	-11274.422	-8605.976	8708.252	338860.97
He	1.0	21.829529	9.6239395	6.182597	-3314.03	559.3613	-1099.4084	5.1868124e9
He	1.0	1.7438782	14.356665	20.896698	-4101.892	5917.413	-1094.184	-86.34231
He	1.0	2.5552654	18.037832	9.433766	3463.5947	-4758.976	-3106.1477	546243.3
He	1.0	17.159525	1.7907218	7.4270215	5473.2354	-4449.55	-4142.105	27584.06
He	1.0	8.103033	16.695286	7.3167	9912.936	1884.9814	-5084.3774	36243.957
He	1.0	22.38966	9.975148	3.348563	-682.64575	-2494.845	-4244.7466	-194461.66
He	1.0	22.18512	15.385897	13.932458	-2225.1292	263.97003	3620.2883	110.30415
He	1.0	21.441435	13.633747	15.666069	-4704.435	475.57574	-4847.9346	-221423.7
He	1.0	10.122453	12.433252	9.548827	-6427.337	2275.9905	817.3355	244138.86
He	1.0	16.946312	14.456784	0.15723383	-1749.7549	3305.0356	3834.5837	1.5630002e9
He	1.0	6.67806	1.9747438	8.639819	-7063.4917	24522.506	15179.997	174446.62
He	1.0	7.8023562	9.252775	10.308303	-2721.52	-2282.1453	-4067.7576	447659.94
He	1.0	9.3528385	16.955387	22.136349	-46037.348	-60086.273	44486.51	806855.3
He	1.0	10.542383	1.9975662	3.2249346	-3681.4912	2397.2603	-6242.3677	-328666.4
He	1.0	15.820737	17.318642	19.04135	-5867.073	-1370.3502	-4489.654	613014.5
He	1.0	20.50509	0.71403325	0.5004771	-7174.2197	-2423.315	6920.2646	-378769.7
He	1.0	4.5996532	15.353422	7.608751	-5581.556	-2489.8435	3186.7324	2.1770294e8
He	1.0	13.71445	8.783765	9.444736	-5247.103	3263.1797	278.31842	7.0002214e8
He	1.0	6.8611283	23.956247	12.1907625	-67702.15	29165.455	-87405.71	160297.67
He	1.0	3.36918	0.94369966	15.87856	-1288.2659	550.40656	-4078.8904	3.308739e6
He	1.0	11.22733	1.2101878	5.2515187	-4303.6055	-819.6832	-1145.3032	1.9074666e7
He	1.0	2.0604792	8.449654	16.215923	2707.1382	709.20856	10497.236	9.125561e7
He	1.0	5.018125	2.5974042	10.377962	-2174.0205	-4744.0674	985.0331	8.073141e8
He	1.0	17.429998	2.5882893	12.433059	-661.92236	3092.4236	23.867966	36.186367
He	1.0	10.594872	18.167023	14.643773	-1391.2628	4003.22	21.399223	214546.6
He	1.0	0.77399373	22.859034	6.238581	32175.445	21942.46	14963.624	1.0302561e9
He	1.0	4.107532	0.105665326	1.3713363	-827.72614	1819.9277	-2152.5225	9.946949e8
He	1.0	9.473048	19.81075	15.830411	4936.048	4148.1206	-814.64667	19618.52
He	1.0	9.187343	13.486123	22.299543	7085.9604	3981.108	22343.744	5.6541126e8
He	1.0	1.681544	18.551317	5.296525	485.29385	-5384.2134	3428.6382	353.6843
He	1.0	2.756468	11.275146	8.870447	9064.121	-694.0635	4366.0366	503417.1
He	1.0	24.011375	14.563986	20.072351	3063.8835	1653.978	-36950.215	106060.72
He	1.0	2.606282	10.220456	15.020076	9194.237	-4225.1177	3535.238	3.6900754e9
He	1.0	13.13932	11.360383	6.4079742	-3241.402	-3693.8486	-4728.2217	1.0766836e6
He	1.0	14.730616	22.073956	1.2670557	44546.684	-1869.609	52813.008	1.1169819e9
He	1.0	22.36235	5.6423793	4.2934303	6366.2134	-1299.1433	-5446.5703	1.0575765e8
He	1.0	2.0655744	9.34942	21.654392	-5643.139	11977.115	2075.6099	5204.9043
He	1.0	10.790597	8.996701	23.950745	-1996.6604	-2177.989	5594.8916	2.7463402e8
He	1.0	12.51714	18.626944	10.269238	-2347.6816	-3480.5222	-1476.3702	1297.8167
He	1.0	15.702259	21.262777	6.272095	413.15906	2673.5376	4127.13	2.9431268e9
He	1.0	0.36472812	9.660018	16.710396	67923.34	-19199.102	65749.41	1.5145234e8
He	1.0	7.3356614	2.9727967	10.239846	206.32234	-1476.4688	-3415.3171	37793.78
He	1.0	3.535283	3.5058897	17.224903	-3171.1628	1906.6194	2135.443	44.95529
He	1.0	21.296854	20.555483	9.48855	1744.2603	-673.30896	-1435.2653	6.9043066e8
He	1.0	8.910964	7.5832405	8.420631	-3137.7917	4843.1597	4317.257	-323215.34
He	1.0	12.630459	20.045912	2.607354	-1037.4948	-9771.0	2919.737	-793739.1
He	1.0	5.9372826	7.8370185	14.494991	-8841.665	-4238.3174	-2269.6404	1.8108579e6
He	1.0	7.876302	21.37077	19.204496	2617.9375	1378.4231	4770.864	-141448.97
He	1.0	17.488482	8.302531	23.838734	1696.5979	-5527.2197	-7726.3584	285.28827
He	1.0	10.4263735	5.2373285	22.271074	-3887.9712	-3384.308	1947.5458	9968.032
He	1.0	17.660408	4.852016	19.660454	-1377.8497	-715.6194	-12032.863	-1.5688149e6
He	1.0	6.020468	8.321258	12.543244	-1959.2874	3190.2905	-7392.5806	59.85543
He	1.0	6.7745204	0.37191474	22.762148	74940.94	34231.844	27583.508	438525.25
He	1.0	12.587029	15.076478	6.1379275	-1292.464	-829.4335	3843.8093	27874.377
He	1.0	19.217777	20.376049	21.267166	2697.634	1533.0444	702.6597	175637.9
He	1.0	19.903843	6.580058	15.453435	10974.487	-8504.418	-11504.619	1.0500426e6
He	1.0	0.015706351	21.218124	7.5192504	25744.326	-10450.821	33895.77	1.416894e6
He	1.0	12.074652	3.4445019	10.461409	2250.3315	3142.6082	3382.9028	-18.002632
He	1.0	19.344002	23.99917	20.003338	-1626.9155	-34570.12	38256.37	4.553946e9
He	1.0	5.378332	18.25846	17.318594	-884.371	-5922.667	-276.9125	5.270656e6
He	1.0	12.0429535	13.598379	7.449792	2568.6948	1334.0906	1097.8724	43.122204
He	1.0	21.43651	19.98289	21.539015	4559.1577	-44766.18	64467.344	945427.56
He	1.0	8.715114	8.050684	12.490089	-25754.22	24990.46	6832.303	32085.795
He	1.0	2.2359679	13.036219	15.854804	-39.123367	1942.7657	2207.8462	276214.22
He	1.0	5.560629	17.481123	5.1712217	-686.4757	-2329.7498	-7273.913	5.9978535e6
He	1.0	21.054598	15.720588	7.5384836	6804.3374	1481.6913	-6667.0435	-156.01974
He	1.0	17.006668	6.734935	18.814413	-42.91749	-1063.1346	6616.0815	-134795.12
He	1.0	4.276232	15.880663	1.6815528	10109.552	810.91425	-5506.5293	-602174.4
He	1.0	7.9219184	3.824851	3.6278732	67.29724	1086.9181	-630.40576	144.5262
He	1.0	10.956491	3.0308487	6.5761847	3422.6816	-2406.2478	-3710.1152	162.15569
He	1.0	19.502289	7.2553782	23.53481	-3227.896	-4400.4214	-1651.0027	-7.094517
He	1.0	15.456031	14.666394	13.662502	3096.1648	-9758.588	-2940.299	5.4240544e8
He	1.0	9.823753	23.300652	3.5634568	-7231.441	5109.5625	5407.4067	1.4545898e9
He	1.0	1.5277147	7.565758	20.934027	4078.492	-5570.3564	-11440.93	1.3885865e9
He	1.0	7.8113756	6.7346497	21.98436	-720.375	827.02014	3081.6384	3.24983e9
He	1.0	17.523169	10.845701	6.9640775	1413.376	-5169.341	3117.2495	1216.57
He	1.0	22.7721	3.3111007	11.692057	-719.5342	2746.4443	-923.0289	129.04764
He	1.0	14.451933	8.868713	13.539352	7133.7144	-2499.5046	-1660.262	-395686.22
He	1.0	3.810685	10.238204	22.993862	7561.461	-5321.4175	-4019.0818	-1.0904519e6
He	1.0	20.555887	13.763641	13.222473	-8257.996	-1104.0253	4176.199	165683.1
He	1.0	5.1755886	3.470955	4.667848	3594.4854	3716.3108	900.7951	5.937804e8
He	1.0	16.607952	11.563334	18.743544	7231.1196	9703.625	-78844.0	64877.355
He	1.0	20.333055	14.684473	0.23877609	2334.3298	2918.3728	-1490.0868	1.51876e9
He	1.0	11.82485	4.779329	12.255614	3184.4404	-1472.7085	-117.359215	1.7564499e9
He	1.0	12.0342045	11.857105	14.783638	-10157.469	1178.6089	4373.0454	4.0302128e8
He	1.0	0.16695035	13.277822	13.888788	-7496.9526	496.9589	1419.8557	13871.291
He	1.0	0.5750591	23.668985	15.971815	-949.871	-2942.7388	1794.3405	35.234917
He	1.0	11.737639	23.9422	3.3429484	3615.1704	-131.51526	-2792.2131	218500.25
He	1.0	11.535184	10.682553	2.6650808	-2344.598	-3095.8528	-9042.228	-529564.7
He	1.0	12.772388	9.960817	20.239908	11837.647	12807.399	-13743.613	3.0413356e9
He	1.0	19.146269	13.482357	2.2125952	2909.074	9902.522	-30332.32	2.3457917e9
He	1.0	14.948854	8.33037	22.700514	-1757.2994	2831.5103	-775.14655	3.4410416e8
He	1.0	7.247753	6.779083	12.052133	28496.13	3771.7234	68475.766	5.3724435e8
He	1.0	6.0699577	7.72607	0.1974233	3328.1658	-486.96082	-1515.7778	602.75635
He	1.0	21.479078	12.052772	7.998974	-1828.69	-1209.9003	3773.9229	60.395008
He	1.0	23.383451	21.34072	16.61457	-14607.625	75239.12	2395.573	655637.1
He	1.0	20.755579	9.734297	8.900342	11463.311	-9026.265	-5153.359	35770.32
He	1.0	5.229828	8.881187	1.6692129	320.49496	4834.572	6205.598	168746.02
He	1.0	18.802338	14.116757	16.839565	-2392.2224	-256.7239	347.5594	5.3301715e8
He	1.0	9.491611	8.19601	22.096256	-2373.6062	-5392.194	-1157.2382	612843.06
He	1.0	15.773822	12.476804	12.872282	-3544.4956	1604.4186	-7757.5186	-491870.28
He	1.0	12.503215	18.442352	23.175722	-5565.415	-3270.6895	-6580.1567	-641346.9
He	1.0	5.3923655	16.120836	3.6503222	2179.5461	181.15591	-1525.1626	5.34088e8
He	1.0	22.2267	12.571804	5.8671937	3083.2717	-4761.056	2671.5562	1.6407334e6
He	1.0	5.6222024	3.0780513	19.63358	-1817.3794	-1862.2056	-4834.66	-18620.18
He	1.0	12.875221	1.6799176	0.104112245	-3221.0752	-1851.6351	8073.5527	2.3517274e9
He	1.0	15.925779	0.079202496	17.211344	518.0994	-4960.0483	-19075.426	2.4876206e9
He	1.0	1.035787	21.094637	4.1051307	-3328.0583	-2583.754	687.64984	-113957.49
He	1.0	21.610447	18.280258	13.858894	-3032.7551	3373.2493	-180.74756	430703.38
He	1.0	19.099756	0.20780593	8.849441	5671.843	3259.9995	-1155.3336	256812.1
He	1.0	11.875437	4.757337	23.720732	-2230.742	242.86974	-661.51996	2.4798285e8
He	1.0	10.31144	6.4141006	19.848722	4361.139	-1466.2567	-1235.3143	133.39885
He	1.0	5.9532423	6.4110546	2.6022937	133.79118	7607.0156	-4089.4685	209268.69
He	1.0	6.692016	22.59095	4.633178	-1127.8167	2189.0398	3599.4277	169.00743
He	1.0	2.8941116	8.838864	10.674056	4482.5474	-1342.6692	-1234.9557	1.12293304e8
He	1.0	22.992092	5.692436	22.104467	3046.5015	10186.958	14741.976	1.7439072e6
He	1.0	15.278809	2.0272107	23.383709	-1593.3447	-1083.0259	-2412.64	54.13562
He	1.0	10.709146	18.345707	11.1364565	3059.124	3303.877	-812.1207	2977.1313
He	1.0	16.358202	12.87189	9.23284	-4391.7983	-3289.0227	-1830.9093	260471.02
He	1.0	2.618817	23.918665	12.675532	1247.3029	-4942.3496	1993.0267	-9.142052
He	1.0	1.2966579	19.961454	14.535495	-2439.6409	-3796.1514	637.91754	-43091.543
He	1.0	19.5782	9.592814	7.084413	-627.9358	2715.904	-2460.2158	270.56613
He	1.0	13.448705	12.067569	19.709835	11671.046	2481.4768	-14181.988	5.636814e8
He	1.0	0.67508584	12.645919	20.702711	-4830.7324	1816.6976	3509.5842	-64.72709
He	1.0	17.965433	4.472901	6.9042535	1108.0537	787.1414	9162.949	3.8378044e7
He	1.0	3.2040513	7.503466	12.355125	8363.007	4096.4307	11193.333	-2.5459552e6
He	1.0	23.762383	16.238123	11.881549	-2847.2925	1227.8368	120.63086	56.469494
He	1.0	20.481339	18.292633	6.3518867	4202.09	3392.1384	-254.47021	2.197867e7
He	1.0	0.77714926	1.8384861	8.851014	1583.5446	2679.9521	-707.0741	161.27568
He	1.0	5.8261786	22.26246	19.044596	-5269.84	5341.9766	-445.10092	246362.7
He	1.0	8.677263	1.9804535	4.710516	10498.292	29165.979	23591.412	4.0848637e9
He	1.0	15.219543	12.133919	1.5436076	4189.775	47991.707	28931.404	114536.72
He	1.0	15.345897	4.0814433	3.5074406	-351.72943	5312.9653	-5353.5566	81.89877
He	1.0	0.53904474	10.019867	22.810995	-78.8229	-1473.0938	-2723.9497	280106.7
He	1.0	4.7235107	16.813618	10.358771	40068.008	-64186.207	-56622.387	77899.555
He	1.0	8.510194	4.7164106	21.095268	-9993.231	29314.078	-39215.336	763232.44
He	1.0	19.120213	12.1206665	17.478556	-8927.157	9.130249	-24.81929	1.5813058e6
He	1.0	19.284222	15.227119	21.990974	-9408.916	28338.555	-4063.589	5.8269425e9
He	1.0	19.773605	16.412127	14.154151	411.79218	5036.76	-2819.998	-62.373688
He	1.0	1.5574769	5.2763205	3.7147286	2038.8125	-3113.73	2261.7385	123330.7
He	1.0	4.8534894	5.10069	19.205755	4295.311	4096.99	1448.7471	129.08319
He	1.0	11.670766	5.0726156	6.1142635	5751.1807	-2064.7512	801.9378	163224.34
He	1.0	23.860798	14.214589	22.014801	-105497.445	2594.0132	-60132.75	1.6821993e9
He	1.0	23.787586	1.4234371	12.009746	-1906.228	1781.7412	-781.25006	495918.5
He	1.0	23.69528	0.3183169	9.530343	7582.6475	2260.467	3393.6582	1.6370411e8
He	1.0	0.8224973	13.2213545	9.409718	2968.0466	-6219.881	-2644.4849	714521.5
He	1.0	6.990195	10.009078	12.038178	-3493.497	539.2893	-835.9175	312.4239
He	1.0	5.073174	16.620674	13.462939	1565.8738	-1804.3185	-2414.2644	28.708572
He	1.0	9.801822	8.383941	19.61137	-3185.0085	-1308.776	3760.3767	1.1265618e6
He	1.0	3.2543373	0.3238508	20.209124	-3860.8687	9470.625	-1957.262	6.195893e8
He	1.0	0.7541959	10.154137	0.7321015	2174.413	902.8432	7721.3247	190770.8
He	1.0	20.447544	22.302263	20.42111	-5229.0713	1754.4839	14.8884535	1.2383204e9
He	1.0	6.9963636	3.219059	22.302061	-87889.125	-35555.81	-29195.908	645432.8
He	1.0	22.491947	19.923418	11.765783	3538.4414	3669.8857	-4156.8447	247421.08
He	1.0	13.273431	18.875801	14.991058	-35961.832	-82901.96	84577.95	169172.28
He	1.0	21.00409	2.897524	15.904023	-31278.941	-3663.8557	10924.886	4.394166e9
He	1.0	11.615895	0.18001759	18.57579	-2402.579	-766.4387	-491.85944	1.0166053e9
He	1.0	14.784533	19.167025	2.7730567	9900.712	-1764.3342	4130.2505	150.84723
He	1.0	17.760567	6.227716	13.740259	78442.08	73692.46	30230.543	6.1227597e9
He	1.0	9.231445	3.5094688	19.67486	12096.998	768.7197	507.23148	124456.0
He	1.0	6.543606	23.234028	20.808037	2311.173	-33.33389	-2114.2043	188430.89
He	1.0	10.932408	2.0660698	17.30097	764.16077	3928.7188	-1542.1595	46920.47
He	1.0	19.615967	20.16589	12.572569	-1114.5225	339.85443	-6447.977	23860.08
He	1.0	11.975704	21.365088	22.326897	4929.735	357.217	-3223.8833	325261.25
He	1.0	22.884382	0.7975986	7.7712584	-6044.8745	3674.006	-2890.446	220057.14
He	1.0	14.265206	14.066203	8.902429	1014.9317	3781.2043	6775.633	-120.9229
He	1.0	11.441524	2.9781816	15.250877	-644.66095	-1321.2583	2075.7583	24084.217
He	1.0	10.016882	11.689675	22.606504	-10535.675	-5578.307	47229.81	7.071568e9
He	1.0	12.457973	12.033169	17.852983	-3468.5015	-3499.8228	-1227.257	1006.7869
He	1.0	23.714615	6.0805364	19.467049	-14473.467	-5014.9214	-1352.7733	2400.1985
He	1.0	16.862795	21.930285	4.667975	-4352.337	10055.483	-17360.793	1.0270936e10
He	1.0	20.641489	6.490712	2.3659885	5637.6655	-854.4387	2658.5835	-437046.7
He	1.0	12.777533	0.97647506	7.723239	-2747.1853	-4176.9253	-4274.492	-63.5636
He	1.0	14.78807	14.367873	2.2747645	-1259.732	3185.813	613.7647	267150.3
He	1.0	14.957744	15.3762045	19.878246	-13823.133	7195.0386	10168.387	662149.94
He	1.0	10.118153	21.740292	18.367529	7476.676	-6045.7188	-105279.586	7.126489e9
He	1.0	18.04609	17.322731	22.652908	-9946.825	-1371.0214	-1485.512	-973193.06
He	1.0	14.335152	10.541116	18.107798	1686.9731	150.4932	-6168.2515	1.06181256e8
He	1.0	21.317297	0.8418499	19.133177	-1034.8478	-327.25284	30.466314	1.325431e6
He	1.0	18.296618	7.6287417	15.932544	-23791.22	19491.855	38939.207	1.5803007e9
He	1.0	18.05839	14.484514	13.53862	-2779.1443	81637.6	-107129.586	3.8215398e9
He	1.0	11.825838	15.020501	11.626888	-2302.5815	-5551.6426	-1332.6847	318588.0
He	1.0	15.535626	18.720005	15.343446	-7247.473	-2307.5945	1522.6383	-603722.44
He	1.0	13.0852785	8.12672	16.401962	3881.0886	222.42545	8325.933	2.0976285e8
He	1.0	1.8251084	3.2004244	2.4287179	-4589.0454	5212.694	265.42194	403524.97
He	1.0	8.703782	9.104053	14.614268	31184.125	-5010.687	-16595.535	2.8017577e9
He	1.0	7.0757127	10.444748	22.856216	2478.841	-136.3318	2528.1155	1.755673e7
He	1.0	5.749635	17.71087	0.9884238	10284.695	-4583.882	1167.5774	8.0639443e8
He	1.0	6.5430512	0.52798635	14.865804	-4268.8594	-2629.3723	3977.4875	5.900916e7
He	1.0	16.245422	0.3878239	22.131739	903.64166	2099.2397	3192.653	-166789.42
He	1.0	12.702209	17.753918	7.4914856	-2554.712	4865.632	8478.449	4.1005722e9
He	1.0	2.4176717	12.064699	21.674673	85.51327	4393.286	-878.69366	272050.94
He	1.0	23.954126	10.92773	8.893458	8126.5635	7950.7466	1919.0975	1.8644863e9
He	1.0	0.106535174	12.03183	6.8532615	-1658.4742	-26.753508	-839.21484	410428.53
He	1.0	10.664559	20.073296	0.80764526	-3469.1702	-7206.3228	-4214.5586	2527.123
He	1.0	6.257524	15.78652	0.15614836	-2595.042	2331.9248	38.29326	-120954.11
He	1.0	14.015884	6.1595497	15.957806	-26812.412	-23096.252	28014.08	95325.836
He	1.0	18.33214	4.308928	4.9393396	-1957.5188	3044.8792	13291.47	418601.72
He	1.0	18.595139	4.6061406	22.562958	-3966.5908	-9935.224	7885.501	793306.2
He	1.0	6.1115265	22.839514	10.413458	6441.1772	86.787224	4594.7905	278601.34
He	1.0	4.075438	1.4852976	12.003219	808.96454	2097.0942	1140.6428	4.3663365e9
He	1.0	17.821287	9.880986	21.145512	51338.34	-54243.19	15827.01	456476.3
He	1.0	4.625754	16.333763	20.669933	6855.129	-523.3736	1637.692	2.587866e8
He	1.0	2.2328434	22.684372	7.9323115	3278.6494	900.4213	7347.1475	130.59572
He	1.0	11.0089655	9.137968	13.56408	-3372.0261	6251.2437	6593.6963	-599560.9
He	1.0	3.7432342	7.9845824	23.579512	-5421.6274	-2008.7374	-1437.8884	-13.876078
He	1.0	19.92884	18.512535	19.552834	3775.7627	-3974.3684	4372.796	1.4474291e9
He	1.0	2.6468248	21.773657	16.056292	2851.3958	-9104.844	-3970.8257	69536.8
He	1.0	23.756298	10.229638	20.16618	-200.04161	2981.3481	-3309.77	419065.97
He	1.0	6.790208	18.271145	7.7015805	2093.6558	274.9258	36.80371	3.558703e9
He	1.0	20.479753	16.247028	9.505227	-591.16156	6218.2476	-7263.0728	1.3459717e8
He	1.0	14.939606	19.625761	7.1794705	2158.1775	6867.659	-666.77655	12.405405
He	1.0	22.248264	4.8057585	17.502306	362.8877	-1699.5193	3283.0325	8.139336e8
He	1.0	16.129803	18.267454	23.41703	3316.2732	194.70804	-6534.632	1.2913105e9
He	1.0	5.663291	20.19899	14.567755	1745.3306	4160.145	-8943.297	-209.80783
He	1.0	16.27816	8.085911	12.582397	-5717.42	8778.553	3205.1838	24290.605
He	1.0	19.562576	2.5632074	3.3258414	3290.995	2833.0112	-1186.9965	5.21522e9
He	1.0	0.5291237	19.778448	8.883017	6291.569	-685.99286	-4120.058	-121235.055
He	1.0	6.7108145	11.572876	16.794659	-50512.977	-17689.97	3481.7034	824710.1
He	1.0	0.4246288	20.116953	1.5723461	38915.234	20643.084	-21953.676	247213.34
He	1.0	22.501936	13.529809	1.9807186	-1369.4427	4627.3677	-888.5381	-191777.14
He	1.0	8.273516	11.404113	11.15031	-3509.3398	4205.665	3284.49	-6.0943108
He	1.0	0.6509475	7.6478653	23.289085	3338.8313	-6259.2544	5746.8467	-126.7723
He	1.0	6.563785	19.640879	21.524364	-3057.213	266.44858	5268.787	-66.45613
He	1.0	8.448012	5.0325513	5.366338	263.67386	-964.97766	-2098.586	410421.44
He	1.0	17.58855	1.9017575	9.392948	26181.732	16619.014	-5300.2544	105863.016
He	1.0	13.6401415	4.033345	0.6101261	-61866.28	-54326.152	-4088.2852	81614.63
He	1.0	14.866469	22.71923	14.349425	-3037.62	1916.291	10550.809	17575.18
He	1.0	8.137636	18.672194	9.382031	434.0605	1107.4308	2557.0693	85.75842
He	1.0	8.150113	7.4744606	2.4616318	2816.9968	-1779.2377	-1817.3317	3.066826e9
He	1.0	16.629932	9.696191	10.465886	-1697.4043	-905.9816	5623.212	-66.130844
He	1.0	10.390792	23.278421	5.5145617	801.5556	-1733.0596	1924.2986	-13581.076
He	1.0	23.166021	4.669628	13.711125	-1247.3688	732.5207	2462.1218	9.630649e8
He	1.0	3.5272965	11.102797	5.818814	-7418.5996	-1955.2067	-6395.3857	247131.36
He	1.0	21.505642	15.971172	4.94184	-16866.74	-35188.793	-5392.4087	2.246313e9
He	1.0	10.392642	15.792816	1.5634673	-8985.906	38424.08	79452.83	246921.45
He	1.0	21.259113	16.680708	16.514753	-4501.834	5371.209	-5250.223	378.49887
He	1.0	17.673094	3.0224519	21.216223	-192.57132	8334.037	5384.7153	-203.11241
He	1.0	5.195349	13.151891	5.154425	445.6811	-1548.4078	135.43109	1.5177925e9
He	1.0	21.274405	22.740385	0.20521623	5775.455	-2349.121	1979.4606	-181619.48
He	1.0	21.694895	19.340763	0.9793061	-14800.52	-2483.3179	-20590.057	4.7771984e7
He	1.0	3.6551528	22.48669	19.811155	4054.9368	-3416.7544	280.0442	545203.9
He	1.0	13.181243	6.330311	5.6662946	-3116.0022	5678.696	405.87216	1.6524984e6
He	1.0	9.384959	14.932705	13.468609	4638.8013	6627.8467	-94.588974	2.717133e8
He	1.0	4.737198	1.0726967	9.016692	501.04004	4309.9775	5740.1016	132.87973
He	1.0	8.501609	8.956368	5.875566	3729.8743	659.35364	3963.3184	10.132582
He	1.0	18.21721	21.792374	22.313715	-2600.4492	4376.854	2730.9856	6.9156064e8
He	1.0	11.862893	20.541632	10.567854	-4583.338	-517.97644	4971.861	1.774526e6
He	1.0	7.005351	18.560736	2.4063966	2679.2935	-5670.1846	-5180.3657	-127.45643
He	1.0	16.256079	12.8169155	16.176416	1213.2264	1102.7953	2383.67	99.221756
He	1.0	22.584408	11.33807	1.0676168	4465.0835	-5523.3003	1684.0962	-194639.64
He	1.0	15.497562	2.6211784	14.372505	-419.7566	1507.3865	3480.0835	265533.38
He	1.0	3.6041787	6.4718795	14.165416	2847.377	3786.3428	4117.9985	1.3775583e9
He	1.0	14.232783	14.120077	21.689594	571.7195	12050.9375	1740.2742	-1.2893768e6
He	1.0	17.40391	10.096666	1.1603112	4750.351	-2868.6116	-2280.1865	316795.44
He	1.0	4.507125	18.225248	19.118628	-1701.6555	-1115.7552	2028.7726	117.76668
He	1.0	19.298496	20.647448	4.310231	3522.523	-2748.1868	9399.256	-1.0493954e6
He	1.0	23.93748	12.8740635	4.367935	2659.9084	-4216.697	-6554.81	67871.64
He	1.0	7.2280183	14.958182	6.8713083	3234.581	-8019.4146	10226.068	241986.73
He	1.0	4.1092114	22.753649	5.8298	3568.8137	1715.324	-2842.4587	257.73898
He	1.0	5.0250754	6.399138	12.638982	-746.50214	3670.2483	-5742.774	357160.78
He	1.0	14.9028	22.252626	8.131703	1086.725	4348.2812	4760.761	127.4252
He	1.0	13.531603	1.7632074	15.373086	-833.7318	-3410.3352	-5765.2207	301534.56
He	1.0	16.921171	1.2388401	1.0470693	-26493.355	20477.443	9618.44	95898.83
He	1.0	18.374365	6.176373	17.300886	-228.32626	-4314.0796	15206.849	2.7245512e7
He	1.0	18.433018	15.905382	9.807146	-1885.0187	6329.5767	-6759.856	694958.75
He	1.0	14.093788	18.770676	18.886993	13952.183	-104443.41	-30631.086	179226.23
He	1.0	15.11681	9.456582	4.4123764	243.58444	-5417.4927	-798.16565	1.2595578e6
He	1.0	17.93301	4.804997	12.013165	51795.316	2730.6184	-43321.617	55430.348
He	1.0	9.451682	17.769674	16.821016	102644.0	-53335.32	28462.303	8.0141254e8
He	1.0	17.06805	20.768625	13.2497425	9089.536	9364.637	6412.78	2.4013668e9
He	1.0	11.775534	6.985776	23.699827	-1904.2604	9092.626	7121.7505	144603.44
He	1.0	0.6662021	7.277614	6.887085	2008.3147	10002.6	3822.7883	2.0515746e6
He	1.0	4.2593565	6.801505	16.848204	-3548.9685	-993.4863	4386.9736	-61160.12
He	1.0	8.415374	20.864273	17.260796	3979.267	485.32315	5524.0063	191.74963
He	1.0	17.044636	0.9570948	20.153551	2128.3596	-4562.5835	-3799.4028	3.8045212e9
He	1.0	2.554822	3.946239	5.158859	-4837.47	862.1212	2437.4321	1.1795041e6
He	1.0	4.58476	12.209886	10.813509	-3076.2297	26445.01	57546.7	843565.44
He	1.0	10.761985	4.84117	3.6286454	-295.10782	-1311.2585	-15441.666	878292.8
He	1.0	7.911915	13.326326	14.991759	-5827.94	3824.7883	889.59564	460179.1
He	1.0	6.270526	14.576443	18.910095	-117.81309	1124.4529	384.2745	2.1479597e8
He	1.0	10.044958	3.421593	4.834604	13488.474	4370.828	14422.215	121979.34
He	1.0	6.94857	14.708259	1.7985713	894.89825	-552.1358	-2640.3965	2.3871488e9
He	1.0	6.5806956	17.29537	22.309078	-57810.906	-46386.812	-88828.26	646093.25
He	1.0	21.47274	7.4582825	23.203152	-4410.9565	-2308.3074	3213.9436	96351.016
He	1.0	18.572344	18.417582	6.9285073	-6088.998	-7082.306	485.3349	1.51407e7
He	1.0	10.702869	20.128988	14.098521	3410.1272	5102.6343	-5968.051	-36.947285
He	1.0	0.9537482	3.6894116	12.950973	-2378.1594	4825.3306	-286.54977	235.27928
He	1.0	19.72413	1.7712549	14.451831	948.9976	4206.957	2694.1333	24.584747
He	1.0	17.541761	21.113373	17.377975	4709.493	1310.4602	7987.759	338045.47
He	1.0	23.134045	21.537928	2.3183503	2940.9385	2953.658	6933.1797	-244794.38
He	1.0	12.902647	3.1113894	13.555966	4603.617	8028.6733	-5767.0356	-770509.44
He	1.0	2.8955746	13.806934	17.78587	-3779.5298	7784.487	5682.449	-228.90985
He	1.0	0.3308834	17.786713	2.6585124	6566.0513	-6462.9033	269.95325	16330.392
He	1.0	18.24125	10.169655	15.811792	-10663.482	2570.9766	-3537.2422	10167.076
He	1.0	5.5935497	14.455453	14.658509	3411.256	1317.2251	-1240.0853	708556.2
He	1.0	17.19792	1.0239172	15.674177	-259.5102	-5202.149	-875.90625	-164704.27
He	1.0	18.933994	14.521177	5.968691	-612.8377	-300.10428	-329.16156	3620.1013
He	1.0	20.937237	13.11053	23.210026	-3504.893	1643.3716	5375.192	5.875417e9
He	1.0	18.207878	11.529357	23.35655	4348.693	3973.7104	1042.2789	104.79327
He	1.0	0.569494	16.28643	22.827953	4872.216	2027.1387	1012.35114	55102.727
He	1.0	23.529802	18.525831	10.0356865	1089.7325	144.51791	-216.73924	-1.1124703
He	1.0	12.639067	11.55987	21.456589	-8192.365	838.231	15888.747	122779.06
He	1.0	24.02151	23.617285	12.811501	73.7052	6476.4443	3843.874	3.686486e8
He	1.0	17.964628	19.33375	8.597758	1521.5751	4762.165	2281.2979	3669.1423
He	1.0	11.6517105	22.155148	16.982384	2988.7817	-3944.628	3922.4993	-18.945406
He	1.0	12.493868	6.359674	11.229933	774.482	2113.0142	-2343.2778	3.8303475e8
He	1.0	3.3796978	11.381488	16.483818	1904.9604	-2770.5952	-2868.9958	268.92026
He	1.0	15.414988	15.260461	10.25409	7392.3877	-552.6561	3863.85	-348962.5
He	1.0	1.0948588	1.8107536	22.900948	-4616.256	3061.2153	5311.2437	-101.516106
He	1.0	16.73387	3.3572142	5.6702476	-2420.9539	-3169.7666	-522.6535	57380.703
H	1.0	16.179304	3.657075	0.34738314	-70033.72	-167750.42	656757.25	2.2094213e8
H	1.0	7.147856	12.769525	5.849395	-445098.22	-318754.44	-142382.23	-567488.3
H	1.0	14.94653	7.2553253	5.197174	-148730.3	-160672.31	-362594.5	847914.9
H	1.0	7.817616	18.573769	13.51948	-48429.934	-289539.22	303933.44	-124167.42
H	1.0	21.747152	3.3124487	5.770332	85774.73	66208.25	-118507.336	-290055.66
H	1.0	18.175371	24.020933	0.1881842	296145.62	65288.0	-424472.94	-2.7836808e9
H	1.0	20.54198	5.2709546	6.16363	-129125.21	-223009.16	-135904.83	4.337547e9
H	1.0	19.556965	6.820711	9.2697525	-126358.67	-24585.527	-442620.8	-354108.66
H	1.0	20.08385	10.633544	2.2051284	-264265.5	-120081.77	7700.9707	1.4748338e10
H	1.0	4.7006598	10.1649475	18.802639	-104192.38	27642.752	93852.52	-1.2038085e9
H	1.0	2.7491288	15.739825	22.89353	512303.62	358416.94	-122433.2	-1.0299748e6
H	1.0	5.3413897	3.9153063	8.699558	-70853.055	-127145.6	-15484.676	1.6711316e9
H	1.0	3.9656906	2.7858183	23.616264	-257047.36	444.9494	88081.68	6163.2124
H	1.0	6.7606177	11.120079	4.2730637	-103185.586	-79967.35	127864.625	-14911.597
H	1.0	10.494639	1.7354805	19.298151	107610.4	-590325.56	-77886.31	1.3488426e9
H	1.0	2.493754	5.047431	16.122196	-88006.016	421335.3	33055.43	-4.453773e9
H	1.0	3.0805137	13.735853	22.946688	24717.85	-66319.375	-35094.125	9.970318e8
H	1.0	1.6738974	10.704434	4.5274677	-380869.12	365057.62	-264013.8	-214376.8
H	1.0	16.999554	5.9628887	21.494415	-507967.56	-113997.03	-71455.02	1.082811e10
H	1.0	1.071684	7.505186	12.1939335	-253145.27	-31553.807	-94350.73	707599.1
H	1.0	11.120849	20.928722	3.753373	-125841.64	-36257.6	-370702.97	194350.53
H	1.0	12.051167	22.897612	7.4718843	-263470.16	-10945.709	281431.38	-1.6978936e9
H	1.0	5.837336	0.7532339	19.228962	-21771.197	-142464.6	7916.4673	8.254158e8
H	1.0	18.63348	12.678709	3.9765813	32920.875	-250390.81	-228062.02	-181136.23
H	1.0	4.496588	21.455212	21.865292	526495.06	377113.47	339721.25	-2.4616594e9
H	1.0	19.82446	18.57841	3.2353756	280940.9	-518326.97	-116693.44	-75569.49
H	1.0	15.514975	7.252997	2.7758634	-8571.252	240746.02	-451288.7	-256141.55
H	1.0	21.006617	21.444418	13.89524	-523713.8	-178697.44	-397235.4	-4.4908785e9
H	1.0	2.3910992	22.015444	13.906125	-168059.33	323116.72	-193033.48	-285269.66
H	1.0	17.180002	6.5759077	1.4099188	-5474.033	300669.12	-98193.14	-9.089134e8
H	1.0	10.660726	19.132612	7.139656	-210562.34	23421.555	-554677.0	-798278.44
H	1.0	0.45863473	17.167599	13.586906	85491.43	208957.69	-413025.78	1.1938706e9
H	1.0	2.143329	23.687815	22.934431	286742.03	215767.88	-275522.16	-452207.25
H	1.0	21.610123	3.4451115	14.095891	-75807.71	-273978.8	331127.56	-850501.6
H	1.0	0.211764	8.094111	9.417345	84834.79	-429759.66	-405849.7	2.5717358e9
H	1.0	7.0386224	5.436881	7.4275007	-345334.88	68267.26	20428.531	-4.8054477e9
H	1.0	7.8990602	1.822628	19.951664	-391267.3	391904.53	-246112.77	-528931.94
H	1.0	20.360653	17.877522	23.490252	82525.53	-143709.0	446905.25	-6.5916104e9
H	1.0	16.1257	19.58276	18.273693	-55451.66	-324791.22	-195771.38	3.3452337e9
H	1.0	21.481749	4.558247	2.0861185	536727.06	-195055.27	272896.97	-2.5779837e9
H	1.0	10.0523615	13.17322	14.653763	-42570.457	4167.868	-133059.48	358033.72
H	1.0	0.92841476	12.959799	17.69054	-147396.48	267247.16	-218657.1	409947.4
H	1.0	13.11503	15.918322	21.040283	-143830.88	109087.01	-379952.75	-1.8098022e9
H	1.0	14.317893	16.72195	6.803821	-71746.82	-180756.17	-503155.3	-1.302276e6
H	1.0	0.22285514	24.06648	3.063588	-279707.94	-63257.977	133798.11	4.4994234e8
H	1.0	15.459726	4.58004	17.827318	265971.16	100782.73	-99395.7	190183.86
H	1.0	20.858856	6.6266136	21.060022	-188460.95	3902.19	-47425.13	-453179.8
H	1.0	20.760458	21.03179	2.3168583	-164740.58	166385.4	43323.688	5.3063276e9
H	1.0	14.819482	16.523575	15.86824	295028.94	428173.53	-128565.69	-4.430769e9
H	1.0	8.679046	22.93181	1.6337764	-543635.7	-211829.44	-145111.1	-103166.94
H	1.0	3.7571573	11.615096	12.615937	-460673.1	-103487.95	-109813.04	220001.36
H	1.0	0.4772115	17.605942	7.981752	57310.188	-344145.8	-210368.27	-234877.2
H	1.0	19.668646	15.951358	18.461866	-341563.22	-573620.7	-88743.1	-853819.5
H	1.0	7.749073	6.7062273	16.508242	215799.45	-277147.12	218867.23	7.138042e9
H	1.0	18.842445	18.153704	12.777355	83634.03	-263521.25	200489.5	1.3124626e6
H	1.0	0.29044864	23.765642	21.81972	381588.72	375336.3	-203794.66	-1.4820416e6
H	1.0	4.5321283	18.201992	2.89172	-62126.69	-120564.29	-92998.39	356022.94
H	1.0	3.212206	15.894503	12.637579	549696.25	318597.3	-351123.75	-1.142428e6
H	1.0	13.654836	0.76139003	17.118614	234015.2	-252268.45	325816.62	-3.394974e9
H	1.0	16.903542	17.882395	16.645935	483291.16	431821.9	189042.78	-287359.4
H	1.0	4.1404557	9.131383	15.946275	-470709.9	-135210.77	112710.375	-1.1124248e6
H	1.0	20.338707	16.518206	1.3500656	-79728.0	132695.75	390351.84	3.6598484e9
H	1.0	19.534887	12.957939	10.712019	41756.887	-125936.695	712490.94	-1.0563758e6
H	1.0	0.008648433	21.02911	22.167202	398362.3	161478.67	71141.87	-80580.34
H	1.0	4.0183954	14.838074	5.6431336	373287.66	-171726.0	-309845.03	-262406.88
H	1.0	19.364138	13.874903	8.934938	102546.37	9530.556	46094.09	-1.6221755e9
H	1.0	23.038471	21.906607	12.332054	-240739.97	-449579.4	-144871.2	-3.6166523e9
H	1.0	18.099257	13.287698	15.069321	3268.863	-288146.47	155585.86	-736505.5
H	1.0	4.0652037	20.914228	3.923003	222543.47	-158359.5	-151796.05	1.0031968e6
H	1.0	2.019524	10.555146	11.917426	-248343.12	-28315.064	-155735.19	-32066.727
H	1.0	17.98431	3.1219137	18.495796	-919297.6	302780.12	-122529.055	-1.1712859e6
H	1.0	9.860784	21.880041	20.336428	-382308.38	359494.97	244579.9	-5.946757e9
H	1.0	18.847588	2.0918531	16.5059	111129.35	-349191.1	-257411.08	776341.1
H	1.0	15.259349	10.545933	0.38470972	13559.041	-84044.664	536608.75	1.0030458e6
H	1.0	10.610074	7.5558505	12.229312	-127889.625	439942.28	-193287.03	3607.6863
H	1.0	17.963326	16.302105	1.9023794	508352.6	173193.34	201530.67	-520610.97
H	1.0	5.2741294	21.84406	16.751492	-413610.38	-369782.22	639196.9	-7.57603e9
H	1.0	19.510683	11.278008	5.4895225	-726323.3	-41211.887	-751777.44	-1.0858992e10
H	1.0	22.219784	6.7702513	9.6269655	-436728.9	-287636.9	-217493.44	-673964.75
H	1.0	8.300202	0.2877617	5.8638797	-560979.6	1575.7931	-179967.38	-5.928411e9
H	1.0	14.688091	7.4734845	0.9001854	-201095.05	173216.22	-128766.72	573005.75
H	1.0	13.355198	13.950413	17.455267	169913.83	384394.94	348414.1	-659432.4
H	1.0	1.1662278	17.904917	16.913576	-108657.61	98726.48	-239939.16	-341643.0
H	1.0	19.923515	19.297436	17.558004	288302.84	87355.31	63407.734	1.9772332e9
H	1.0	16.25053	8.256493	8.567545	377855.56	-452155.6	-163398.12	-41900.746
H	1.0	9.02543	21.42505	4.9675164	-609705.56	307527.9	236061.05	-5.907037e9
H	1.0	7.7286506	18.600592	16.452045	143790.3	-298244.66	-349250.97	-550349.44
H	1.0	5.027381	14.551253	11.949533	57493.242	-187744.75	199683.67	252653.03
H	1.0	22.26421	23.112705	13.93644	-146791.69	497351.88	-16186.335	98053.766
H	1.0	5.264835	4.7930303	11.256394	-488632.78	111147.336	501806.6	-2.8724398e9
H	1.0	21.712353	11.830249	13.649244	-657724.2	-111715.47	225644.1	-2.901984e9
H	1.0	10.219608	23.846537	20.282873	-204471.14	-138653.08	293890.1	2.1485002e9
H	1.0	15.901026	1.0936414	13.062346	-33617.36	680388.06	-72448.76	-73328.336
H	1.0	8.675686	4.0036845	22.93175	-326862.53	-78033.664	-57145.848	-6.4507136e9
H	1.0	15.951468	3.6742885	10.746281	-337195.3	280127.1	153664.75	-1.4210752e9
H	1.0	13.07364	1.3361318	2.9381175	-59986.332	-90230.14	281439.03	-293115.53
H	1.0	6.9032974	14.414755	20.80447	-237168.05	-328799.12	-369662.97	-633161.25
H	1.0	11.112665	14.454639	19.318613	-238127.17	185063.56	-302036.66	4.2581078e8
H	1.0	6.0190635	5.71653	17.506102	-225713.48	-106494.836	-167812.39	-530071.44
H	1.0	8.571631	12.234665	16.597422	394841.88	-70924.195	-101745.53	-8.0364513e9
H	1.0	23.090294	12.167973	18.990553	553087.94	-442887.5	-266965.47	-1.1027064e6
H	1.0	16.572622	14.618705	18.986156	67941.0	-131687.94	-109853.766	2.5762609e9
H	1.0	17.181286	1.8120048	4.046313	39620.363	-499816.75	16668.281	-151096.84
H	1.0	14.233635	19.769533	16.551088	-34779.2	-286380.6	-210368.9	-821402.9
H	1.0	12.334744	18.374897	13.2491	-139917.22	187743.34	21271.61	351373.1
H	1.0	16.166605	19.109898	12.593775	-360684.1	214001.64	310442.34	-3.7758769e9
H	1.0	2.196657	8.34488	2.0873156	-12365.546	-164495.31	92172.86	-3.9420234e8
H	1.0	10.61948	10.931799	0.8128047	-291771.4	301483.44	249678.28	-7.657148e8
H	1.0	3.681688	20.455988	20.201447	-298736.9	23045.455	-57424.523	-354065.1
H	1.0	17.007566	8.576981	14.761415	44991.906	-81137.18	-143784.92	8.963411e8
H	1.0	24.050205	16.62731	20.85766	-164015.72	511775.2	306993.2	-864769.56
H	1.0	2.0799918	12.236315	10.681452	504452.78	134168.06	123504.63	-4.322783e9
H	1.0	18.440458	6.638907	7.497461	31920.203	129792.55	116774.86	1.2811446e9
H	1.0	21.20305	20.560703	19.698822	73750.39	-301857.72	267605.0	-656395.4
H	1.0	7.261401	16.754993	4.1794367	83036.76	256802.83	407795.97	-688758.25
H	1.0	19.731781	16.672153	20.601795	-125573.67	-136585.28	-397631.5	-622069.9
H	1.0	0.68607944	14.781741	3.4643555	-163485.14	-223289.58	-207661.66	1.7241651e9
H	1.0	17.184292	8.114214	6.708524	199555.98	-174627.02	130822.12	-2.262638e9
H	1.0	0.288455	12.554587	2.362905	156102.86	-310801.94	-239831.36	-2.8444575e9
H	1.0	1.6908069	11.1522665	18.448652	174200.08	129810.23	66650.516	624356.25
H	1.0	20.68369	1.7680047	8.911952	662076.4	459186.84	229607.89	-1.2590762e6
H	1.0	21.576336	2.518807	17.890072	125678.36	486219.66	-176677.06	-3.7201027e8
H	1.0	12.569142	12.397868	10.473464	-211926.19	-275664.12	315392.25	-242035.12
H	1.0	5.6943297	9.596565	20.656221	37039.734	-39299.82	-121247.65	1.2798792e9
H	1.0	13.579231	5.1740212	21.680561	-47918.535	-365599.75	41768.91	-2.1355909e9
H	1.0	8.480608	15.8724785	0.77140707	-167192.11	-454941.72	232575.55	-993864.6
H	1.0	12.076017	22.606386	20.675348	152288.88	50887.543	112263.375	2.5202778e9
H	1.0	15.278207	14.116697	4.3165565	70567.21	192221.14	154002.39	-672258.44
H	1.0	5.7161474	15.519693	22.164902	265168.6	-121117.65	13086.757	-3.7853343e9
H	1.0	12.158174	8.138322	5.202369	-134676.73	219447.61	441085.72	-2.893021e9
H	1.0	21.499449	5.408375	15.393434	540708.94	182368.39	161187.48	-2.218937e6
H	1.0	1.5688956	6.394304	14.131213	-228131.98	24099.596	27129.332	-1.8962466e8
H	1.0	7.4189725	18.305525	5.6801147	-340580.28	189233.0	-634334.3	-1.1325574e10
H	1.0	12.100009	4.476087	20.339897	-258794.92	-69145.695	42218.367	2.2745597e9
H	1.0	20.757036	17.096865	11.784146	-298980.1	-18291.098	609067.4	-660735.56
H	1.0	6.7311773	11.711166	0.86221766	411865.0	211669.95	-111801.55	2.3378524e9
H	1.0	15.353816	23.11971	5.267688	35521.723	-308578.4	153652.67	-4.341895e9
H	1.0	6.6474385	10.337104	8.953188	-265813.78	245171.11	228788.88	548549.7
H	1.0	19.115002	22.92457	14.107181	133929.1	-253807.9	-119432.15	-1.8692828e9
H	1.0	14.718746	6.2012153	20.061892	38188.207	105521.72	315043.62	1.4473604e9
H	1.0	5.8164744	22.490728	24.01145	-240671.7	55700.316	340522.94	306853.75
H	1.0	8.002785	23.458889	13.700253	-317234.75	-186033.36	542287.56	-356160.53
H	1.0	3.695363	11.5544	19.955368	167241.34	397346.88	-194668.16	337918.53
H	1.0	13.434044	9.152637	6.431921	-28737.068	170861.97	121722.47	4.8110715e9
H	1.0	14.995899	9.324676	19.537207	-268851.16	158514.33	-289811.3	-86055.555
H	1.0	23.403683	14.912598	5.0360165	-202387.34	-72823.57	-280142.56	-98153.82
H	1.0	0.47477582	4.6839323	17.576635	306417.0	-388789.16	783607.7	-1.6592525e6
H	1.0	12.5081415	13.38963	22.616669	409298.97	309722.44	-458995.12	-563262.44
H	1.0	23.402063	21.63312	5.7152886	320960.84	120758.73	-137445.12	-5.9170007e9
H	1.0	1.4326344	2.3256826	4.240031	324022.56	21878.107	116654.21	-3.2018967e9
H	1.0	23.824053	6.505182	17.313995	-179467.69	-519539.2	237774.73	-1.0663e6
H	1.0	4.678078	9.623782	6.738027	201144.73	58199.62	8212.551	698977.7
H	1.0	13.890559	20.6231	19.464695	43994.176	-56196.457	250784.0	67031.52
H	1.0	16.479553	11.208888	20.68525	315537.9	-612080.7	389243.3	-2.7342325e6
H	1.0	4.229157	13.766844	20.06911	140686.0	-6662.561	-79283.72	1.8978973e9
H	1.0	21.774515	20.704433	4.3319855	-89060.1	390997.7	-68544.82	-5.418107e8
H	1.0	2.5051303	5.039188	11.249759	-64104.28	-186749.45	-416457.84	-329692.8
H	1.0	22.85625	15.257993	3.0997994	-510812.22	-129588.555	-262314.97	-2.595802e9
H	1.0	13.958205	11.097491	9.384298	-457227.34	-295977.12	-202984.83	-360940.6
H	1.0	8.053105	0.3161599	3.842429	-500855.53	21749.516	123267.734	-328696.38
H	1.0	20.491299	22.229504	10.285449	-586956.9	-36858.23	-156524.6	-6.740296e9
H	1.0	20.021976	10.465102	16.772804	219604.6	387624.1	-536268.5	-2.540169e6
H	1.0	22.529345	15.8351555	9.51766	106917.46	-104121.97	-129408.71	415621.72
H	1.0	4.8872	3.5999782	13.478292	-235409.53	-399242.7	-371065.4	-3.3758528e9
H	1.0	12.993964	23.82261	13.544704	-236881.95	-76108.61	-87790.96	1.2565544e6
H	1.0	12.218835	16.203562	23.833755	54331.26	427014.88	-133102.92	495048.66
H	1.0	9.243476	18.467602	1.9377391	-255360.64	-280689.3	-649103.75	-6.917537e9
H	1.0	0.76071864	14.905686	7.9699297	48751.94	-85726.86	-309188.16	3.7539758e9
H	1.0	12.928197	22.919687	1.2653481	150625.22	-613933.0	389838.94	-1.5840312e6
H	1.0	12.742421	11.99191	0.80964893	-188569.83	366580.75	-355569.03	-180971.48
H	1.0	17.091215	11.095142	4.942424	417263.72	195175.0	9905.078	4.6589104e8
H	1.0	0.90336496	23.139708	1.2770969	15121.6045	2595.188	-307132.44	444150.12
H	1.0	14.410772	5.2894382	11.846853	671929.44	20486.9	-78839.87	-1.0019286e6
H	1.0	18.461426	4.64541	2.9861305	-93848.42	-106622.62	374266.25	-912034.0
H	1.0	15.419138	2.5070488	1.9937953	110844.54	-77372.03	-584573.44	289260.53
H	1.0	17.163485	11.4533615	2.8175626	593951.9	66332.766	191267.75	-1.959235e9
H	1.0	22.357124	11.748298	21.81178	111324.55	205043.5	-285815.62	6.5871085e8
H	1.0	18.18409	23.24265	3.56328	284520.12	-285955.47	-141232.9	242654.47
H	1.0	6.710011	15.1460905	10.981397	-307464.7	-200856.84	229905.03	5.521229e9
H	1.0	19.871176	4.188094	19.930365	431198.16	-529449.3	-289360.34	-1.185553e6
H	1.0	16.169613	17.971594	7.958439	123539.17	-420915.12	146141.56	-66830.18
H	1.0	13.898661	19.674595	0.41394082	76110.6	205136.16	34251.33	7.0589414e8
H	1.0	16.473116	22.295786	21.402733	-24816.645	24473.836	7411.815	512465.72
H	1.0	7.749483	8.54031	23.260271	-389798.2	448491.78	107894.61	-3.849965e9
H	1.0	22.781174	9.469041	8.200104	671468.0	-151432.64	-299811.5	-6.1968553e9
H	1.0	23.757637	4.230146	4.738012	352579.03	-371489.3	-8333.177	1.8951598e6
H	1.0	21.17639	13.799031	21.303762	600663.06	-79371.26	288549.78	-9.522621e9
H	1.0	13.224436	2.3179219	5.1079926	-142448.86	440204.84	213977.39	-2.5314337e9
H	1.0	18.104578	19.84168	11.215637	-229327.02	333227.8	2351.6624	-98786.65
H	1.0	16.38555	20.17534	22.632732	87829.695	-228775.81	-213862.58	-6.68958e8
H	1.0	5.0408235	12.326539	14.258016	-181779.19	235114.73	117830.15	1.3805381e9
H	1.0	10.712616	3.2818666	13.147254	-66664.34	-326718.4	-123018.11	-36272.13
H	1.0	8.426822	11.251616	14.700405	-182557.61	349231.8	276278.06	-480198.9
H	1.0	12.824575	10.410808	12.073968	-26125.773	7577.2603	255319.52	1.5534695e6
H	1.0	9.095012	14.051643	10.336669	-17963.541	-59730.094	74359.77	-8.084198e8
H	1.0	1.2308693	17.607708	0.48386174	267257.4	356221.0	275337.75	174841.39
H	1.0	20.535378	23.375168	22.223772	133261.73	-161943.27	526499.06	-552114.8
H	1.0	5.5114183	12.29842	18.899883	506660.38	498591.06	69015.57	-66885.3
H	1.0	20.632042	8.718403	13.161185	151163.78	184993.0	-268382.28	2.600386e9
H	1.0	12.87709	8.759468	23.388506	139592.11	12565.322	94637.11	3.879422e9
H	1.0	0.37078884	3.8964667	22.119219	205466.48	-133421.84	7956.7627	208895.95
H	1.0	24.022516	1.9243469	2.6840699	-276879.47	-468832.25	-12806.468	-3.4325432e9
H	1.0	15.413149	14.640653	17.181997	132141.7	-207843.56	379014.4	1.0786089e9
H	1.0	21.219208	1.7258484	12.436055	4940.5415	28603.406	127612.48	1.057739e6
H	1.0	17.889137	14.513648	7.8098993	222857.31	-249093.62	-161581.16	-2.1129618e9
H	1.0	10.547808	11.752518	16.184929	415482.53	-226032.03	94648.48	1.0580638e6
H	1.0	16.158785	21.30493	2.5106637	173600.5	-328239.47	-294151.12	-1.1523841e9
H	1.0	11.328725	0.17020482	9.193426	-83562.33	-39228.242	-104902.72	9.10484e9
H	1.0	2.8892043	6.8368554	7.8510237	355540.62	276518.4	300569.2	-602710.25
H	1.0	12.838463	14.370778	1.479834	207016.33	-356491.28	-191417.16	280407.2
H	1.0	0.6879843	5.1290917	6.2308493	-141626.7	-72618.94	-357204.53	-307041.66
H	1.0	0.42506978	8.139526	19.280718	213857.17	110782.29	151105.94	-236095.05
H	1.0	7.9785275	22.192131	8.923364	168749.0	-370498.66	52705.76	-382494.16
H	1.0	11.596629	8.99928	21.538658	184138.67	-536381.6	95047.695	-465706.75
H	1.0	22.110577	9.62254	10.699071	-472417.88	60659.305	-91309.05	-291204.47
H	1.0	6.266064	1.9129856	12.1260605	100860.91	105042.29	-183597.39	6.481179e7
H	1.0	17.946177	2.487246	23.480562	-287811.4	-355720.6	374426.28	-243951.69
H	1.0	9.89728	22.636196	7.696011	136692.97	-14487.472	8255.628	64516.21
H	1.0	2.6225972	13.330054	2.386909	-317342.7	-218860.36	-271357.06	607100.0
H	1.0	0.6843702	4.351233	1.135961	-340391.2	610194.3	-4372.077	-18315.084
H	1.0	21.282005	0.048658196	10.596297	-492749.03	81582.4	285982.2	-3.7095587e8
H	1.0	13.593448	2.9771738	22.541096	-503009.9	77411.5	45963.734	4.2077325e8
H	1.0	23.35484	2.697212	7.214342	-130063.79	-146885.64	-542001.44	-66053.77
H	1.0	23.018396	14.36562	7.0269785	434604.78	-137048.66	300796.56	-1.0680295e9
H	1.0	2.672333	4.2628603	0.076085605	302501.28	-541759.7	446022.88	-2.7824046e9
H	1.0	19.52595	15.6923685	4.334972	215937.39	452438.62	-111083.12	-2.7681393e9
H	1.0	22.288763	0.6443399	23.121128	334187.03	403845.1	-377121.78	-389323.4
H	1.0	22.642263	12.420728	9.904523	330310.6	49593.56	-790365.25	-1.4816974e6
H	1.0	5.636399	18.925072	9.925746	-42866.996	139037.58	389112.9	64860.93
H	1.0	19.146698	20.668959	24.053236	71282.36	105189.31	137510.05	4.2250314e9
H	1.0	9.451909	19.46245	18.816084	-53665.65	538042.06	-129486.59	-679461.75
H	1.0	18.857792	15.428564	11.691428	-586165.0	179700.94	-262431.1	-51456.418
H	1.0	21.156492	23.17323	8.451035	305426.56	-213283.17	-156372.94	460748.2
H	1.0	1.2817359	17.801222	11.071379	159233.44	6164.7383	149690.42	-39792.465
H	1.0	15.527707	2.5839608	8.568024	-357321.97	129567.66	371574.88	-2.7744492e9
H	1.0	18.375067	2.4316735	1.6733375	-277475.2	-303906.84	173125.56	-3.9783135e9
H	1.0	4.620403	10.685195	4.1904974	-22562.729	51891.043	44560.285	1.6639087e9
H	1.0	8.159008	6.951647	14.385857	281975.3	369442.78	-191056.81	-454915.47
H	1.0	0.07654149	19.568518	16.769924	-4951.8994	283860.78	-356210.47	-5.585251e9
H	1.0	1.3288132	2.727806	16.49714	-439037.22	-37293.996	308557.2	-2.5655982e8
H	1.0	18.484636	0.4612568	21.7992	-212387.44	52069.61	61474.715	5.166347e9
H	1.0	14.320947	11.1796	16.149036	235422.61	417954.9	11875.369	-431740.97
H	1.0	19.29301	1.3604813	18.657003	120502.17	156611.14	110594.04	-2.5683128e9
H	1.0	12.259237	17.943535	19.641573	292622.0	28137.428	-290504.62	-297967.72
H	1.0	19.544094	10.164681	19.892756	452687.7	118766.79	16973.152	-1.3782548e10
H	1.0	22.484709	5.765039	24.065777	275117.9	-762715.6	-1912.1206	-1.2223869e10
H	1.0	16.396574	21.457903	15.186138	-374411.25	-195956.23	-234298.4	474914.5
H	1.0	9.632145	17.375454	12.934003	408375.25	-49292.68	-153262.12	-118427.875
H	1.0	1.1636143	0.98717743	20.644049	128869.96	-287309.9	-293775.1	1.7001691e6
H	1.0	10.229599	1.5367739	10.506028	-131422.05	-71619.72	-153173.52	-1.1560335e6
H	1.0	19.953413	1.8610559	21.279163	25658.078	355103.9	-124473.33	1.519771e9
H	1.0	15.231542	11.088519	5.7540207	-214651.55	188793.05	416497.66	-436049.16
H	1.0	11.937722	19.903114	20.312532	-518003.3	-16452.867	14476.005	-5.4163616e8
H	1.0	4.554034	9.854382	11.390381	-260950.95	478390.28	-378360.72	-6.485118e9
H	1.0	9.939065	17.62101	8.52881	-345925.72	-146774.92	105935.414	1.1680357e9
H	1.0	12.801299	3.1901407	8.048782	316626.6	23163.666	11646.428	189910.98
H	1.0	13.993445	11.174365	3.0946965	419801.3	579786.3	18893.51	-878741.1
H	1.0	6.3361464	21.686634	7.288306	74140.1	-154281.88	-348687.62	-130145.7
H	1.0	10.547429	8.715766	6.567633	-253629.31	-168295.8	303243.1	-6.804304e8
H	1.0	7.5787582	18.20664	23.698006	-27593.248	-319582.4	-95182.305	-185881.53
H	1.0	15.4313	23.959484	19.15216	-574747.1	110076.336	223090.61	-9.577047e9
H	1.0	7.5644827	15.928365	14.554872	43475.625	-138272.72	376567.84	-1.7466268e9
H	1.0	18.48662	13.41673	21.95173	295677.78	94171.555	119706.2	-2.7029996e9
H	1.0	7.492839	5.660153	1.0761647	-221869.95	295131.94	355908.3	-184244.47
H	1.0	4.839845	11.479296	8.999703	240258.83	-516270.28	-14113.464	4.3741834e9
H	1.0	2.6439981	5.878126	22.765907	45612.668	248351.78	461067.4	-378321.06
H	1.0	7.764561	2.0477333	13.706903	175723.31	335943.97	153418.06	251248.11
H	1.0	20.023603	22.364733	16.965532	-135094.94	141177.25	19517.773	2.7296338e9
H	1.0	21.24329	12.463302	19.664316	-371263.62	-108732.54	398626.22	582106.25
H	1.0	12.108497	3.7229323	2.6696079	245309.89	-67154.81	462604.66	-1.0876658e9
H	1.0	2.1161113	6.551243	5.540375	154328.98	-556342.94	159001.69	-4.742048e9
H	1.0	8.038467	3.6244135	15.969142	-181387.38	66134.06	-32718.303	6.853688e8
H	1.0	4.9221964	1.9650192	15.135836	-121383.59	173381.75	-177455.34	959586.6
H	1.0	19.598001	5.997103	4.0322385	279249.34	-22812.465	191696.33	-2.810537e9
H	1.0	13.57179	8.522875	11.554341	-233420.52	-113474.71	527290.1	270331.1
H	1.0	17.10165	3.5843732	16.404678	455793.34	90657.7	103825.67	-211435.86
H	1.0	13.238861	16.290243	19.128008	-166575.48	-210631.08	110364.53	-152485.6
H	1.0	16.23973	15.8765335	7.5990276	106174.4	-141204.67	-195451.69	663308.06
H	1.0	10.571618	10.920097	18.86555	-686198.56	228466.5	248601.52	-88526.14
H	1.0	4.818697	19.6228	1.5139315	-582634.1	127998.65	347308.7	369499.72
H	1.0	8.424535	16.716375	18.477354	-261416.3	-2616.6118	50245.496	2.0340365e6
H	1.0	5.969254	0.7902981	4.511419	166674.23	372035.16	299321.28	5.1502794e8
H	1.0	14.2440195	1.5043697	21.43188	49723.406	392916.8	257816.19	-425874.16
H	1.0	3.0046475	19.049202	16.031353	89771.85	106277.055	-393413.12	4.138439e9
H	1.0	20.822554	5.1945577	11.3677025	45126.43	41687.56	-237098.06	-2.1955122e8
H	1.0	0.29914227	6.0945888	9.0468235	-341442.03	-374933.97	-335771.3	-2.7382927e9
H	1.0	6.44523	8.365184	3.1488419	-581285.0	189496.83	-570276.2	-1.1617708e10
H	1.0	19.515299	8.279077	18.215475	-563365.56	489952.62	-11703.013	-1.2347266e6
H	1.0	0.5473129	0.750663	6.028663	135443.6	-525776.2	-187351.56	3.8214267e9
H	1.0	2.51419	13.098764	6.84529	-425618.34	252429.62	180365.48	-544906.3
H	1.0	20.55087	12.416169	1.1743479	452346.03	-347859.62	150746.64	-4.2051786e9
H	1.0	6.2972417	20.730373	10.469013	66147.32	-81748.13	-431666.97	6.3802107e9
H	1.0	10.808442	16.347132	19.108063	158394.61	-37376.707	-357744.88	421575.8
H	1.0	12.146518	14.372408	9.447519	181478.73	-43739.875	220153.3	1.458791e6
H	1.0	22.96759	19.303373	2.506501	179202.67	243300.06	-18192.574	1.2827917e9
H	1.0	16.418274	5.5504513	8.130148	268671.28	498883.88	203960.9	-1.1864346e9
H	1.0	16.180332	23.56216	11.086322	44564.438	-539578.8	-110123.02	-6.406027e9
H	1.0	22.975084	3.0002677	15.657614	275515.72	-436240.4	69657.03	2.324196e9
H	1.0	9.266186	0.5194995	7.964028	-57419.793	-538455.94	116898.164	2.4647808e9
H	1.0	8.352878	11.4990635	2.6305606	275688.28	155379.14	39699.965	9.520169e9
H	1.0	11.133409	0.90767616	1.0474714	16146.655	207778.39	108276.195	169934.05
H	1.0	14.224985	23.06008	2.9667416	-208435.16	-159201.42	-579473.8	-343593.0
H	1.0	1.1235609	14.118862	23.407541	-398617.75	225490.22	275535.4	-5.0207954e9
H	1.0	10.424255	11.77589	20.635162	-283992.5	-35927.21	-378526.62	-1.0039579e6
H	1.0	10.625919	14.95186	23.877335	-241860.72	171807.33	-149766.89	-651777.2
H	1.0	18.230808	21.41267	6.0337143	-135100.56	-25987.55	-265470.47	202315.5
H	1.0	21.689066	17.334007	20.381828	-135850.95	-271852.75	434630.84	414022.8
H	1.0	11.476896	3.0822332	0.88224876	161986.56	-131117.33	-104264.586	-620325.94
H	1.0	22.93295	13.799004	11.946478	344275.47	143053.52	-302407.34	-1.7202857e9
H	1.0	6.6396217	17.08308	11.426352	-210740.56	251103.55	19414.53	158133.55
H	1.0	5.330387	21.03275	5.701801	493548.22	-9625.956	-184226.89	544558.1
H	1.0	16.682436	10.965681	14.443269	179798.88	-279071.84	-291687.8	2.3484093e8
H	1.0	13.126372	16.743736	16.889784	-129378.42	666772.7	-321837.84	-115217.55
H	1.0	11.269864	16.696949	10.030479	350508.0	-477419.25	-113778.03	495857.06
H	1.0	22.494862	1.9417706	10.098713	100256.23	74514.76	431791.8	-7.339438e8
H	1.0	11.53156	16.045776	14.221759	-382478.22	-933513.44	252154.6	-8.616609e9
H	1.0	12.972598	7.589283	19.313831	-313029.5	578012.94	-57884.895	-4.2702072e9
H	1.0	6.5631924	2.0262396	6.6497507	356999.7	-117173.64	-162540.53	284699.53
H	1.0	16.116018	20.74977	10.01049	186983.27	-407362.16	-330956.2	-1.9999571e9
H	1.0	3.523549	17.10366	0.021727381	15229.997	75199.65	-213819.45	9.172367e9
H	1.0	20.648989	7.302351	5.11835	503852.2	-59851.16	-104781.125	2.0016342e6
H	1.0	18.740227	1.5475113	11.249684	-474237.44	-362706.25	7116.034	349737.34
H	1.0	4.0544705	4.7632155	7.078463	-357360.44	480723.28	125124.234	2.966087e9
H	1.0	14.752032	16.535654	13.598947	-220349.86	-113886.35	261647.38	244488.75
H	1.0	9.653836	2.4555674	23.965923	194910.73	-462277.1	92677.76	4.3837834e8
H	1.0	19.521336	21.116856	18.808485	180342.94	77628.58	-224973.3	64072.312
H	1.0	14.373172	10.861203	22.757261	23189.217	-179005.92	561859.94	-2.3535122e6
H	1.0	17.321367	11.307024	11.609139	457510.1	-164011.19	-265079.53	-1.7035025e9
H	1.0	0.551911	4.914449	10.655872	-267690.9	112915.72	-338193.7	195909.2
H	1.0	11.589492	5.271969	18.350359	96882.01	-104751.1	679187.5	-289431.0
H	1.0	13.59069	22.021626	23.715298	-41408.625	595466.6	-409044.56	-5.439973e9
H	1.0	0.10994534	7.5208225	15.672961	-79601.93	198657.84	381984.2	-3.29407e9
H	1.0	23.776314	19.542791	5.527052	-190396.61	107612.06	-378354.53	-1.2531e9
H	1.0	7.467392	13.792929	12.404528	-7097.319	116148.52	-215300.25	2.494056e9
H	1.0	6.4202905	17.033657	18.872269	-23645.412	545266.0	-315613.16	-1.7316727e9
H	1.0	23.669676	10.452537	5.5319076	536312.0	169392.83	1.00725006e6	-2.03359e10
H	1.0	16.560131	17.682533	3.886325	132425.75	-431495.75	225663.66	2.941075e9
H	1.0	16.947664	17.468576	10.998047	337638.0	796904.8	38630.254	-8.645067e9
H	1.0	22.159803	23.323547	4.732961	570653.94	595681.94	145311.6	-1.5647939e9
H	1.0	8.955196	14.753706	19.231283	-417055.8	282588.16	36906.477	-340041.28
H	1.0	8.505884	3.7767177	0.7939907	478374.62	132075.52	-338076.9	-4.4379264e9
H	1.0	3.6111982	22.350155	0.31226498	-93171.69	208692.61	-661826.44	-1.4309932e6
H	1.0	14.630858	21.800224	16.345352	-201513.62	-203943.1	122390.16	2.7749043e9
H	1.0	10.243525	10.562429	8.836794	254116.92	-68353.97	-218858.48	-16051.048
H	1.0	9.555178	9.497554	17.545694	93807.67	-69560.26	415301.22	77930.92
H	1.0	22.995483	20.998482	18.848421	175435.25	-127528.94	87022.07	1.9824003e9
H	1.0	21.340206	3.3500712	3.8039653	-161416.0	-60248.902	214658.25	5.224541e9
H	1.0	0.35333037	7.025003	2.5934026	344409.75	7728.3354	-192509.28	-9.202184e8
H	1.0	13.953106	11.782066	14.146456	-161199.98	20002.074	-44805.15	1.4476e9
H	1.0	5.4148474	4.2247276	2.232725	-249067.31	-264111.1	219265.97	2.1666522e9
H	1.0	8.972552	23.942415	10.219904	-80890.84	11686.264	265144.78	-253870.48
H	1.0	7.5465603	7.765357	20.191406	-201991.0	100.35596	307158.9	-3.417405e9
H	1.0	16.367273	0.4145626	2.7769275	-133423.12	209562.67	-238779.36	144768.61
H	1.0	23.052578	6.886558	12.094874	-154133.2	264412.38	470956.1	-2.426379e9
H	1.0	7.2562613	19.135883	11.43826	172958.78	-554581.8	-218631.39	-2.4519596e9
H	1.0	22.980762	23.42869	18.807188	-291269.88	66842.37	-410563.53	2.4962757e9
H	1.0	16.940262	15.700683	12.092152	98536.52	16710.416	-227186.05	-1.4049524e9
H	1.0	6.2657704	6.4493074	10.379527	198044.72	189082.66	-46402.492	1.2978231e9
H	1.0	23.452824	11.95498	16.782701	1.1339604e6	98653.35	-294093.06	-1.4222963e10
H	1.0	2.1670716	6.9249225	18.618084	-465554.84	-339963.4	-246594.45	-3.2672218e9
H	1.0	16.072054	15.6868305	22.309551	-78817.695	-192864.53	79762.195	41134.887
H	1.0	4.090116	15.7067375	17.90947	418031.38	-327429.5	12708.803	-623580.5
H	1.0	10.446826	6.2573514	4.98063	175593.02	38408.64	250194.34	-278108.06
H	1.0	5.056325	22.244946	2.1018398	361892.56	337127.88	276360.75	-1.0939205e8
H	1.0	13.82477	20.314579	13.795192	-583491.5	-46858.266	293528.16	-131133.28
H	1.0	15.115267	5.3386993	0.5641949	-241158.64	134824.42	-71687.03	8.955931e9
H	1.0	15.34895	1.892006	6.0962696	-104271.77	316665.7	33182.746	6.022572e9
H	1.0	16.04214	0.6403357	9.486872	298584.12	-272002.38	121381.1	88142.7
H	1.0	16.680508	8.129318	21.589409	-214708.19	-97277.25	269877.78	1.0188899e9
H	1.0	22.31658	23.1678	6.765643	88746.945	395139.7	29043.477	449320.1
H	1.0	12.156345	5.641215	8.614772	-14427.226	-93818.21	288464.6	553961.44
H	1.0	12.018579	6.356183	21.230423	53876.22	-427555.44	-58915.023	630214.3
H	1.0	19.392735	9.5792675	23.108635	-71060.76	-79484.97	-9635.235	339869.94
H	1.0	10.4880085	18.3896	21.452707	-65757.64	-278353.53	213370.2	-5.43244e9
H	1.0	19.56636	19.245079	1.3987209	139288.23	-291453.1	60144.727	-696640.9
H	1.0	18.909576	13.78508	19.289343	-284626.22	-655475.4	215824.12	-1.1138329e6
H	1.0	15.1599245	8.183116	16.754257	103088.875	-13679.953	297684.3	-24880.98
H	1.0	16.374243	4.9346466	13.235933	-456340.8	128686.38	35925.062	-1.0249068e10
H	1.0	12.133919	22.38481	14.908613	-32158.283	244755.62	-71636.125	1.1916618e6
H	1.0	17.402592	8.443363	4.10187	-30732.48	-71178.52	-17909.682	290547.03
H	1.0	19.003954	21.978214	2.079062	-287610.53	-127962.625	81762.164	-1.071889e9
H	1.0	0.8267347	15.889418	6.1021557	183706.22	-3877.164	408359.12	126906.65
H	1.0	12.252002	9.905315	8.347674	415565.94	-249027.33	125775.82	-398547.22
H	1.0	13.479892	7.34667	3.3995433	-2308.8481	-158366.5	-101799.58	-136771.11
H	1.0	7.882829	11.400876	21.097937	275445.53	-337652.78	12674.568	7.7673247e9
H	1.0	6.023421	16.02058	16.702219	104178.43	147979.23	324777.2	1.2889929e9
H	1.0	9.845479	18.607828	23.330317	232394.12	147569.86	423471.78	8.398581e7
H	1.0	23.086824	9.931451	15.34854	364096.53	-191915.9	193920.27	-623048.25
H	1.0	7.222103	0.2313081	7.8660574	-148520.31	-505669.72	578389.0	-2.2161528e6
H	1.0	20.207455	0.5454462	3.741048	-137842.31	126136.37	-279328.44	7.412955e9
H	1.0	19.65695	18.481949	21.750544	179929.52	-109826.07	-393232.16	2.322487e6
H	1.0	8.311767	1.6813045	2.2621176	20094.23	-193187.67	236426.98	1.3518048e6
H	1.0	14.435455	3.5030057	16.062117	-479593.88	-502649.9	-69113.75	-4.7336084e9
H	1.0	4.8168592	9.970677	14.221989	135744.8	157688.84	48226.38	172223.83
H	1.0	8.694803	13.945122	0.9939393	192265.27	-194837.11	-31503.225	4.617012e9
H	1.0	10.491386	7.84903	3.0921676	506.25714	-332074.8	218025.03	-1.7231534e9
H	1.0	18.05107	5.0402904	0.42769682	-178739.86	-500625.25	-41750.36	1.6053702e9
H	1.0	11.013091	21.796757	1.7720374	258475.86	20222.236	-378068.28	-9.6938394e8
H	1.0	12.580106	14.473839	15.321986	198575.84	73334.34	-426234.34	1.3048433e9
H	1.0	6.9042397	4.411007	18.699877	-294839.38	-305706.53	205639.45	3.1154478e9
H	1.0	6.880944	9.373997	15.36386	-114173.086	-21273.941	242440.4	-8.0619725e8
H	1.0	16.232214	13.659672	20.732105	199951.42	-200382.84	-304410.22	-3.6531607e9
H	1.0	13.439916	5.443984	2.4090195	86158.375	-45241.125	-6459.3643	5.979017e9
H	1.0	10.816801	21.932941	23.884754	290843.8	198174.75	216935.33	-4.1729257e9
H	1.0	14.980429	13.783288	0.2405046	94235.62	208976.16	-77028.5	-19066.574
H	1.0	5.610651	19.58788	4.2118783	572489.2	-320106.0	221237.4	-784170.44
H	1.0	9.288633	5.418918	2.2126358	-55657.355	302862.38	-24286.826	2.0547796e9
H	1.0	23.639063	21.812504	14.585743	-318189.12	205468.28	-398217.28	-1.6310368e9
H	1.0	2.1355894	16.639875	2.0693934	223552.89	362089.12	56764.406	626447.75
H	1.0	19.248283	11.7646885	7.426715	-145088.11	-404053.6	54181.07	-4.0871375e9
H	1.0	15.004047	16.37066	23.883121	178487.69	501897.12	-126029.734	-337376.97
H	1.0	9.347855	13.359704	4.0443244	-826746.9	159075.39	251761.11	-1.6727671e6
H	1.0	2.976604	18.236828	21.76694	-349364.7	-528420.44	244276.36	-5.1473597e9
H	1.0	19.84946	6.715547	12.502143	143441.02	109335.445	-92332.32	2.112852e9
H	1.0	11.574744	16.783566	5.5855346	-98691.75	91694.2	199366.92	-529925.06
H	1.0	19.931194	23.425266	6.0753474	-116623.05	85169.52	-114162.77	186787.3
H	1.0	8.327292	16.16844	20.622334	190490.23	550422.9	-277282.8	-4.4685727e9
H	1.0	16.649757	6.4413157	23.598389	-520922.56	-4058.023	-74553.766	-1.6751755e6
H	1.0	8.71352	11.159508	5.399345	14676.116	233262.3	256322.27	2.9484646e9
H	1.0	6.568979	2.7695498	17.487785	223058.69	602007.8	25349.066	-2.3228716e9
H	1.0	4.641667	6.677029	6.611691	161285.7	-36451.246	205676.69	116421.15
H	1.0	15.154372	7.07758	14.630111	-512789.53	-153928.3	-272680.1	-1.5722155e8
H	1.0	1.1519816	14.032106	12.02262	160379.0	-499169.12	183456.22	-344043.8
H	1.0	21.193636	11.014082	23.54005	-239426.61	-620563.25	115114.24	-694272.7
H	1.0	14.134324	1.3069514	11.165675	-107256.77	-33831.773	-441416.5	-2.2389448e9
H	1.0	4.790472	18.931461	8.068558	-260038.19	41170.035	315385.88	-100954.086
H	1.0	9.331472	16.245562	10.07062	30094.648	134154.06	531169.4	-5.8596244e9
H	1.0	2.4253526	20.838465	23.472174	-204495.9	284683.66	110145.12	-1.0420305e6
H	1.0	8.370875	9.564648	3.0719886	-658348.25	-386508.84	302346.22	-2.9376425e6
H	1.0	22.561283	15.375746	0.0034643384	27638.943	150730.77	335644.03	-3.2658298e8
H	1.0	18.820133	0.9617226	5.144463	189755.08	-371303.53	341079.75	3.5915607e9
H	1.0	12.247382	8.549135	1.7472796	83946.95	264056.72	-341110.06	-109116.125
H	1.0	3.0051196	2.874946	9.7902975	-483903.53	155795.92	-842758.5	-1.9530798e9
H	1.0	3.8905976	18.07702	11.596134	215455.86	138317.03	-79967.56	-1.1204814e9
H	1.0	8.492195	19.463692	6.964481	-216182.88	-373129.12	-458007.94	2.7231992e9
H	1.0	18.84343	12.681051	12.977896	99499.29	39875.387	-41488.54	6.5696275e8
H	1.0	18.998837	17.919432	5.0041895	427793.22	203334.64	87128.92	-625350.9
H	1.0	7.0635405	20.712143	12.92723	-215580.42	29839.543	161015.77	1.0363012e6
H	1.0	3.6963177	8.049432	21.397064	-323140.44	11601.37	-9482.177	1.0858954e9
H	1.0	10.203983	5.2033763	8.460737	33336.797	297604.03	-156948.22	8.599737e7
H	1.0	20.202387	9.15851	3.9530196	-170134.55	-100852.99	92481.54	2.6186848e8
H	1.0	3.5851736	14.23464	14.308894	-353866.25	-639.5008	-99706.99	-2.8772388e9
H	1.0	21.220814	1.046034	6.3803377	301171.0	232539.3	-16684.918	433140.44
H	1.0	5.6966233	5.2411156	22.041813	328740.8	535525.8	236077.58	768876.75
H	1.0	19.910362	3.7068555	13.074747	20804.88	171615.44	94335.31	1.0268471e9
H	1.0	0.80607295	10.599499	14.19005	-445298.3	11878.182	-212683.25	-155753.22
H	1.0	20.65653	11.870286	3.8739257	-21568.275	-38482.855	-582989.1	1.0807742e6
H	1.0	9.620894	1.1251829	14.30316	-113478.98	351301.03	-203682.39	4.180898e9
H	1.0	12.750593	22.56784	18.82645	-55314.66	237346.7	9477.833	-5.083716e8
H	1.0	6.8895807	10.465167	6.0931616	-256409.28	491360.8	139204.6	5.0569037e9
H	1.0	1.9006886	10.841129	7.0966654	-10317.178	76932.59	66568.54	-34013.44
H	1.0	4.8780146	22.530195	14.246607	301467.6	394215.44	-258579.16	-89229.6
H	1.0	1.7447131	4.217198	18.979874	-387626.12	-205184.61	-197362.17	-227869.67
H	1.0	4.4654675	5.265237	3.7420132	657147.2	-215613.84	225751.03	-3.5997343e9
H	1.0	3.4167106	19.22043	0.17543833	-97208.766	-424419.06	215125.42	-2.4402552e9
H	1.0	7.963164	13.331581	8.084462	70533.04	-110716.45	-21273.16	319001.0
H	1.0	16.637186	14.905733	15.400993	262553.56	426589.34	-250662.1	6.6420644e9
H	1.0	20.602007	5.058545	8.212408	240538.95	739778.8	-367189.2	-970645.94
H	1.0	23.234722	18.049677	23.768965	-234404.69	-285470.06	11369.906	292979.28
H	1.0	23.187937	8.352674	21.963015	300618.5	-130861.56	24611.115	199532.88
H	1.0	9.671306	6.3857102	17.26027	55475.98	56686.793	-4982.5586	2.1208956e9
H	1.0	5.0340233	12.918755	2.0718598	96358.95	-129873.21	-326849.94	635770.5
H	1.0	22.635757	17.58241	4.972039	-93854.74	-294171.28	-163744.73	39495.594
H	1.0	18.346855	16.419756	7.4738617	-470520.56	444894.97	-173159.0	-639893.5
H	1.0	20.854074	8.969216	1.2784437	-240681.12	-378705.72	-410595.56	784544.7
H	1.0	4.9333706	3.4119506	21.951336	-57485.17	170596.9	243140.14	5.215054e9
H	1.0	3.0569434	9.071867	18.028141	-165341.52	-162824.52	35656.445	941604.94
H	1.0	2.0753162	11.798258	23.78692	-234290.73	-125257.22	-667872.44	-1.00020856e6
H	1.0	3.1363385	0.95258266	5.582977	107325.64	78729.234	-826285.94	-750197.7
H	1.0	7.3200293	14.840346	4.8652906	-90076.68	272431.22	-329766.7	1.1894051e6
H	1.0	22.509941	17.093826	1.7330824	351302.38	-273796.06	135480.73	-9.062648e8
H	1.0	1.9134041	12.060905	13.30298	-207179.89	-289134.8	365860.47	-1.1430018e6
H	1.0	1.4632671	22.976826	18.764423	-423584.88	-45957.637	109817.414	-546118.2
H	1.0	21.423141	11.618907	11.700563	178979.62	353015.2	172342.28	659076.75
H	1.0	18.774986	8.182938	2.185748	-204736.8	434567.88	-457579.56	-559465.5
H	1.0	14.242807	20.075874	9.088452	486770.38	103501.836	-214186.34	-884330.0
H	1.0	7.36737	11.600572	19.040913	-206139.06	-127543.36	98226.47	666152.7
H	1.0	9.949467	6.710353	0.70905435	198194.75	178527.86	127661.516	2.5713636e9
H	1.0	23.236319	4.439236	20.575945	-219014.42	198702.45	140271.84	6.7319557e9
H	1.0	18.335962	11.614816	20.288166	-252623.7	-264125.8	-49592.39	3.0289674e9
H	1.0	2.534792	20.45608	10.640223	-488067.78	92177.27	-88700.75	611637.4
H	1.0	5.0561924	23.687998	22.172869	-359599.3	146178.48	-245247.84	4.4819776e7
H	1.0	18.92512	21.355417	8.894981	-193328.39	219348.95	-130757.84	734891.2
H	1.0	6.51586	19.024008	18.889229	-81259.19	-19741.791	116833.92	467266.56
H	1.0	1.9741337	15.942773	16.348335	-77508.13	-180069.98	51468.86	391908.3
H	1.0	14.215843	22.33728	10.621343	176309.4	198084.0	-87509.55	1.32409e9
H	1.0	15.31439	17.811117	21.261871	113433.91	355903.06	241374.6	509376.47
H	1.0	10.377512	10.291783	4.87766	11072.254	147304.48	169855.42	-3.8548224e9
H	1.0	23.392773	8.613148	0.6987277	54412.246	27941.094	117357.69	161992.14
H	1.0	3.3148036	19.345032	13.340703	-247486.39	-151766.83	52793.215	1.5732952e6
H	1.0	6.756981	5.265268	13.280536	-569632.1	-14794.875	-25601.865	-285760.34
H	1.0	14.544656	0.2969348	0.22554256	351898.56	374706.34	-378858.28	-5.9303076e9
H	1.0	18.958946	6.2754226	21.447493	-147012.27	279136.28	78379.69	-3.3941056e9
H	1.0	19.810116	2.713359	5.455654	540289.9	-218434.05	162520.55	-5.5385713e9
H	1.0	12.639178	21.77229	12.548702	105580.76	256357.55	-327609.53	-1.876245e9
H	1.0	20.718075	3.5076337	22.981869	-497356.22	-236623.77	344720.56	3.1693742e9
H	1.0	17.232872	22.790209	9.585673	-308118.3	-283566.5	-67088.37	920431.94
H	1.0	23.40964	8.346012	13.497292	-312079.28	-200160.31	-285322.62	183806.4
H	1.0	2.6868958	0.6740429	3.6367922	754427.75	-124730.695	-12945.688	-1.2001726e10
H	1.0	5.97461	3.886066	6.840186	362291.56	50775.684	228244.73	-5.0331686e8
1000
Lattice="24.079964 24.079964 24.079964 0.0 0.0 0.0 0.0 0.0 0.0" Properties="Particle Type:S:1:Radius:R:1:Position:R:3:Velocity:R:3:Entropy:R:1" 
He	1.0	6.509856	2.3182855	2.975703	-3041.5635	2458.7666	2765.1301	248224.8
He	1.0	2.3559067	16.128439	10.333625	-3230.6538	-3826.6785	-5557.485	-613125.8
He	1.0	2.3005314	3.423277	7.1836615	4910.6406	1210.5297	-749.1727	-220973.17
He	1.0	1.0489793	18.870579	19.531889	-1038.4108	1538.368	-3779.6218	64.03666
He	1.0	20.832787	10.589659	21.400528	602.01605	-697.2619	-3152.0254	1.6502039e9
He	1.0	4.6672387	12.545015	21.74518	15949.973	-29440.902	40385.14	1.8564736e9
He	1.0	2.2217095	8.364732	14.227544	-5127.1235	2532.667	-2185.8562	13494.521
He	1.0	16.56096	23.762793	7.321372	552.93207	-10718.279	-2935.4565	-212.72638
He	1.0	7.4489326	21.36226	22.092464	-419.3392	5818.3555	1895.8287	2233.6877
He	1.0	23.079302	1.2223368	16.5216	-9134.912	4535.3286	4715.5825	2.716818e8
He	1.0	6.0263815	16.55584	6.8840423	3776.6663	4004.8887	-537.5631	1.3154025e7
He	1.0	18.42068	22.240381	11.378296	18532.12	-4678.3594	847.54816	249332.12
He	1.0	16.6027	6.298067	11.752489	709.9167	-6013.0767	6198.6006	20443.305
He	1.0	15.534079	5.8310857	10.119945	13528.769	4443.747	-13718.601	1.476849e9
He	1.0	2.8952806	14.2011	11.000176	-303.77704	3654.8875	-2067.4146	2.2032619
He	1.0	1.9051217	11.312753	1.9082257	-5033.98	7025.6265	-5138.8486	-869310.1
He	1.0	8.293729	5.176257	9.628297	-114.70565	4156.2065	-512.4107	191.10698
He	1.0	11.154192	2.76334	21.397259	-5903.9307	-43434.664	25158.238	81610.914
He	1.0	23.277548	16.994875	15.782137	-6108.2505	2504.1191	-1445.1216	184348.27
He	1.0	24.03481	10.350867	11.917089	-922.64545	865.1191	-3347.5364	6.0170477e8
He	1.0	14.306667	4.427909	9.370482	-6454.5127	3084.838	-2308.7678	-97.118515
He	1.0	9.052363	20.448746	3.1013	-7832.4214	6248.3594	-2422.7058	-1.0395197e6
He	1.0	7.3455443	20.251143	5.058122	-149.35738	50.839474	2298.5898	297341.38
He	1.0	17.901716	14.983463	20.555752	-7240.039	-3997.1238	-3679.5835	-850725.44
He	1.0	8.533092	3.3891265	11.91919	-2194.8174	2190.534	-1201.4513	0.73046887
He	1.0	0.51872516	9.586953	3.2082095	3361.433	-1170.652	-10929.353	2.6143101e9
He	1.0	8.686912	20.430067	0.57278836	3000.3818	4943.567	-2073.3813	-325474.78
He	1.0	18.758533	17.489956	0.45222208	-10459.7	-42897.777	-100305.766	1.5865885e10
He	1.0	22.235626	22.93478	16.044886	-22733.613	24270.924	-14326.711	2.3819845e9
He	1.0	20.421173	13.550636	6.886753	-2893.4946	-1088.6031	5569.011	11.063004
He	1.0	20.629951	7.6838207	10.937726	-4299.0957	4840.2856	-1769.3969	2.2076784e8
He	1.0	21.319136	7.280995	18.816349	110389.36	-36806.27	52498.316	4.4055055e9
He	1.0	17.289598	13.618312	10.987594	-2662.0325	-6087.634	5490.3843	-107.84046
He	1.0	3.837418	11.203621	1.4086068	10085.561	-369.02487	-1554.763	-644025.94
He	1.0	15.590204	18.633701	10.015928	1483.3785	2697.0166	6636.5854	-571680.4
He	1.0	12.261636	7.8728147	14.601084	-950.98376	3340.3801	-11964.669	26838.654
He	1.0	9.188245	16.15928	4.4393406	8258.066	46.74391	4275.8823	1.712271e9
He	1.0	2.434358	22.346457	3.0990515	7660.7075	2102.2544	5128.406	461.2526
He	1.0	4.8915277	18.32451	22.710625	562.7082	8354.868	-464.9911	-119.82172
He	1.0	14.292238	4.8671703	14.066011	-34469.34	-3446.1035	11248.425	9.203538e8
He	1.0	15.8139515	4.1510706	22.19829	6467.1704	1596.7812	5648.6196	-425369.0
He	1.0	15.50361	21.642778	18.591225	-7618.0596	3414.8997	-855.79175	-115.176636
He	1.0	18.556269	21.14996	15.000382	4286.6187	-234.08891	-3119.2947	118956.375
He	1.0	11.576321	7.7129555	8.134887	883.48254	3721.077	744.86395	3.3057382e9
He	1.0	13.119154	23.558136	22.242529	-3947.7556	-6962.3594	-2705.2603	-582340.75
He	1.0	15.697913	18.151634	5.7783737	4801.908	1350.6378	-10070.592	-162.37852
He	1.0	6.685356	23.63948	17.012697	-3199.0396	-4184.459	1665.0559	1.4198294e6
He	1.0	8.593279	22.630037	11.83845	-1540.372	-7731.1597	3350.9626	-634919.8
He	1.0	21.918074	19.055162	7.6797605	4163.864	1001.85425	3668.2354	-85452.734
He	1.0	14.570963	6.239425	22.842299	-3821.4553	-5922.854	-7276.94	1.8587036e6
He	1.0	17.336538	8.629006	17.896378	-1016.09564	5166.007	5881.3413	-475444.56
He	1.0	11.705129	15.955118	3.751306	1247.919	-324.11383	3348.5535	1.0423262e6
He	1.0	12.213983	19.918718	8.474174	-180467.78	-48777.508	-26988.992	3.3879862e9
He	1.0	4.31596	1.9390604	3.713037	-5303.5605	2361.937	-5025.3296	-71.30119
He	1.0	6.438748	7.6756625	17.9067	21532.332	65179.895	28285.04	131591.36
He	1.0	5.8616385	2.9611804	0.5984179	144398.42	-38400.01	-17699.617	8.4265385e9
He	1.0	14.904898	4.8364215	6.2235436	-4062.5498	4672.321	-8.984518	42.79413
He	1.0	15.509523	21.882456	12.636447	5446.0586	-8351.779	-10339.27	4.2140906e8
He	1.0	18.071863	5.172825	9.641617	1741.6803	8781.634	6846.2476	-745220.0
He	1.0	23.596487	18.75881	21.755455	1870.5865	2438.424	862.14655	7.984839e8
He	1.0	13.370489	19.271885	4.3179464	2117.7744	-3796.7336	1557.947	-168356.94
He	1.0	3.2642593	21.024982	1.8480303	2248.0193	572.54535	-1858.3773	5.7251285e6
He	1.0	21.952095	0.0028220238	1.8385258	2663.0679	-78.98229	-5679.2593	-74825.44
He	1.0	12.081306	10.227749	16.402927	2661.6875	10.633756	781.2159	95.01181
He	1.0	17.613123	22.989014	16.317797	5394.696	-3595.9263	8882.757	-141.19347
He	1.0	5.537232	9.746061	23.923622	4001.582	10291.291	-21408.531	28868.166
He	1.0	18.409613	10.049491	3.4697003	-48085.47	13030.221	-7063.931	915154.75
He	1.0	22.430351	14.285484	17.394333	1307.1571	-7438.906	-1699.1311	-93.484146
He	1.0	3.271841	16.79506	6.001404	5755.05	-1807.7026	-371.3906	-58.966274
He	1.0	10.807393	17.994122	3.3024168	-1532.846	3903.0273	18.663197	107.41085
He	1.0	16.801647	20.387838	0.76272595	-607.6524	-3542.4978	-12579.237	28961.504
He	1.0	4.1860294	21.960356	9.502866	3698.4075	-328.3074	-1888.1785	208.16191
He	1.0	22.590805	6.202482	2.2078278	-4609.361	-5636.524	7308.917	704731.06
He	1.0	22.753124	5.0326724	6.899696	1323.9766	-1996.0817	-2383.1248	393329.9
He	1.0	6.6248927	7.987718	8.122338	-5500.151	-2445.0627	-8573.156	-305399.25
He	1.0	13.97232	17.846148	11.395712	7004.171	-5723.818	4158.172	5.366697e6
He	1.0	2.347833	19.481424	6.9364333	1529.5358	2599.421	2951.9905	82.844734
He	1.0	2.5710442	23.499643	17.043793	-5201.0215	21024.477	12522.96	793091.8
He	1.0	23.878471	21.025692	10.518155	-703.27014	628.5812	-3018.608	316773.78
He	1.0	4.56827	24.078737	10.696978	1645.0325	-2411.4324	-1849.0511	22.954433
He	1.0	9.802043	5.1899915	12.69489	-3722.3057	-1299.5269	-1022.51984	1555.8324
He	1.0	23.066519	1.5788372	21.371996	1142.0652	758.13086	4076.3286	780015.9
He	1.0	13.568049	21.250319	7.0002	4902.097	4695.0024	-1976.3971	74.64399
He	1.0	2.2429266	3.0740604	21.088514	-4774.8555	844.94666	2184.4246	428951.88
He	1.0	17.615488	19.02718	21.567453	-1142.944	-6031.8467	2833.7075	182867.8
He	1.0	4.394922	8.659735	8.837543	-6484.3867	1674.6924	2158.2976	-41.174053
He	1.0	16.7691	23.010159	1.4385186	-4948.099	741.4662	285.30115	2.4850448e6
He	1.0	9.916204	4.2833896	17.650417	5659.295	-3330.1	-1961.2931	37192.63
He	1.0	18.649845	7.234082	5.520714	-5559.3765	35524.94	91743.766	1.458353e6
He	1.0	15.029023	1.915736	18.969078	-15601.155	80219.43	4501.824	81508.72
He	1.0	16.270184	10.089709	16.293705	948.38116	3771.212	138.52428	617056.7
He	1.0	0.9198847	4.4905696	14.785278	5019.7695	-882.72144	-1248.7424	874172.5
He	1.0	4.208948	23.037886	3.8441663	-1814.4797	23787.795	-2766.0952	1.128679e9
He	1.0	20.136522	20.79246	6.724338	-1846.7157	-2984.1824	644.0968	19.231287
He	1.0	23.662868	12.78237	23.514961	5074.809	2120.607	4213.4526	1.6938912e9
He	1.0	9.244463	14.891838	7.7997046	-3345.0627	2621.454	5203.012	558641.25
He	1.0	22.19202	4.358562	10.056456	2653.0664	-2382.774	-5392.798	81.71795
He	1.0	11.732172	24.037262	15.986896	-825.86346	-1051.163	-577.16046	149769.86
He	1.0	9.267638	22.057144	22.546026	3377.4326	5453.6167	8941.516	1.0540361e7
He	1.0	5.4991794	3.818919	15.697144	-1481.8588	4010.234	6458.602	1.992634e8
He	1.0	18.103365	23.284273	18.31252	-4818.945	-4172.252	4228.361	86.77738
He	1.0	6.677665	14.851845	8.978025	3745.0447	239.34851	2607.532	72.77584
He	1.0	19.758389	10.794758	10.264316	-4376.4976	6197.084	5759.4673	1.595326e8
He	1.0	11.244019	23.322882	12.072637	-11973.846	11036.438	981.21106	2269.517
He	1.0	16.61997	19.63819	4.7580166	9446.759	5610.7837	-10269.131	-2.334869e6
He	1.0	1.6507446	14.96171	13.780847	-20274.87	6738.6143	79406.0	2.7795927e9
He	1.0	12.608269	2.980677	18.472296	-2091.0562	-1820.3694	-10630.451	-210.1627
He	1.0	10.812267	0.12064367	22.622643	3779.3557	-2326.786	-2002.3147	-221979.62
He	1.0	20.978296	14.5152445	10.384862	4538.6616	2237.4763	6820.228	1.1679488e9
He	1.0	4.8041387	0.019756583	7.135947	-1659.3923	-2395.956	-4722.3057	-98478.14
He	1.0	5.6230965	8.249856	5.5647244	-10797.743	967.7208	3457.6199	283769.72
He	1.0	20.39601	2.8099983	1.0692602	-2199.444	-4141.958	181.75403	5.761499e9
He	1.0	8.960588	13.168011	20.336592	-2992.466	909.64264	-372.9525	5.0941307e9
He	1.0	9.50207	9.881206	20.96896	-911.89343	-3391.0674	-2716.7942	1.579148e6
He	1.0	11.538554	20.307755	15.9831	-4163.8115	6503.6733	4843.4927	-682978.06
He	1.0	8.523941	0.38305843	0.189398	-7302.6978	19187.072	-24366.24	1.3389322e8
He	1.0	1.6458226	2.0983558	18.880697	5601.6396	2392.3904	-22788.98	6.0805074e9
He	1.0	8.197338	11.202919	7.5257325	-834.29895	-206.85706	-2760.087	100492.734
He	1.0	7.952855	6.882532	5.945232	-8942.488	-2174.991	-1364.9988	-177.33908
He	1.0	18.94524	17.225233	16.125366	-5212.365	1221.5161	-833.7594	-17.316105
He	1.0	1.7336075	23.735153	10.647071	-5366.864	-2796.7048	-2037.5485	52224.35
He	1.0	12.232463	2.0374022	11.890655	898.076	781.12494	-2325.9446	64.70845
He	1.0	17.28493	22.750431	12.93666	-4406.717	12748.409	7249.614	2.989628e8
He	1.0	21.950535	21.178635	23.042849	4640.0464	17011.998	23234.69	225949.0
He	1.0	19.952383	4.530972	17.394602	653.8188	-7587.1167	-416.16953	-120874.7
He	1.0	9.163347	2.7018518	21.51762	2535.4019	-46318.71	-40637.234	527821.4
He	1.0	1.1706009	1.8312461	1.0167303	37859.53	-22543.584	-52888.965	4.966768e8
He	1.0	4.694182	21.257643	12.048047	3596.0703	-4968.3774	-4716.683	-356790.28
He	1.0	19.481186	0.3024879	15.899632	10945.5625	-260.25262	-6012.586	3.2345373e8
He	1.0	3.111458	4.551337	13.12703	-32848.316	22088.852	-1140.6296	17930.812
He	1.0	20.31396	18.92961	10.664301	1473.042	-1388.5813	-2870.5818	1.0279993e8
He	1.0	8.962659	4.042591	14.10031	1183.0096	-1554.2369	6587.311	1626.9169
He	1.0	8.739809	11.374535	0.39238524	43262.75	21162.957	-40704.836	534986.8
He	1.0	1.393398	14.85703	18.609625	-4646.6235	-4816.745	-5620.58	5232.878
He	1.0	4.6967216	17.88015	15.197296	-8926.491	-3040.8862	-4599.107	-889638.56
He	1.0	14.614712	12.988547	10.553726	-2715.8108	-534.0585	11264.7	1.946766e9
He	1.0	15.004472	17.268719	1.9066591	-2959.5845	1538.2644	2351.607	-49700.12
He	1.0	2.2099583	7.0172	10.213924	3900.9539	-1761.209	-955.5982	64.75897
He	1.0	23.48313	2.9414248	19.0124	-1606.5175	-2541.8767	-5920.828	338707.9
He	1.0	22.81499	1.7577846	0.9207264	-3275.1384	-5309.732	1420.6841	111015.78
He	1.0	19.359505	3.3326414	8.4921	-1702.448	-4422.846	-4047.0203	1.5355109e9
He	1.0	6.9751406	14.1732025	23.165161	12115.331	2411.8088	4840.38	-1.8078658e6
He	1.0	13.416337	0.25349513	19.958078	3294.2888	-3307.683	-9226.648	-255.55785
He	1.0	10.385431	12.431965	2.295845	-2607.4492	3214.3516	-1722.8048	3.7002455e9
He	1.0	21.772297	17.82551	18.432316	3544.7056	-46.275627	3106.252	2730.9773
He	1.0	3.2692957	7.849471	3.8904982	1048.0344	203.88104	2357.59	8.4156275e8
He	1.0	15.637084	14.616552	6.1746883	-61652.53	-95969.586	-107085.91	751055.8
He	1.0	19.450686	3.4258575	10.615099	7174.469	-7059.212	-7632.068	74764.69
He	1.0	17.364887	14.336243	4.7431555	-9848.685	-199.52307	1070.4982	3.5318803e8
He	1.0	13.482469	18.833199	21.206686	-3486.9873	100.63174	1787.9489	1.8574272e9
He	1.0	18.722336	10.119701	13.103174	5229.696	-277.82144	1880.8549	6.5194545
He	1.0	9.775292	12.449119	6.73645	-431.5313	1690.8384	-3486.7466	1.6444014e8
He	1.0	14.053579	16.227571	4.2829556	1947.1189	6551.925	375.90073	-277103.8
He	1.0	7.866367	1.1511221	17.281164	4229.228	1193.826	4771.0605	543886.56
He	1.0	5.8803005	12.330695	12.430681	22192.48	-55667.727	15680.087	8870.865
He	1.0	23.00448	0.84011275	14.563409	-6109.4204	3711.9631	-3155.296	51197.074
He	1.0	10.532923	22.005732	9.699607	1748.9257	-152.04317	2654.4233	847522.6
He	1.0	8.114712	18.648798	20.660515	1306.406	-5876.6846	545.0826	-33.303722
He	1.0	12.69847	9.2084875	18.17301	5372.329	2811.063	-3856.4885	87497.42
He	1.0	4.2201385	6.588299	9.655482	-6226.0806	-3374.918	-6416.174	327305.94
He	1.0	22.188879	15.404384	19.347158	-4213.4805	-3614.813	2199.2576	19.767136
He	1.0	17.87692	11.451893	8.910655	2022.5225	-4116.737	-2452.1345	119002.83
He	1.0	7.6549497	9.804344	17.916063	1719.0199	-16566.928	-15902.604	4.6102313e9
He	1.0	4.233033	2.2649271	7.176822	422.8077	-3613.3567	-2780.5935	-0.8973696
He	1.0	14.564201	6.6930127	8.4216175	-7861.546	-2809.1665	520.4965	1.1841375e6
He	1.0	2.804325	4.736997	8.9219055	-4792.027	5864.2925	966.7034	2.2842954e9
He	1.0	0.75380313	7.832798	4.78873	-342.95746	6551.88	-6335.9937	5290.677
He	1.0	11.305409	13.24245	12.550949	-225.73306	-1948.1921	450.0711	333931.8
He	1.0	22.195347	20.100277	15.143993	-8630.212	962.6788	-5054.388	-229.8237
He	1.0	9.656629	14.517668	16.361225	-233.92964	-5361.422	1291.0178	387249.84
He	1.0	4.32136	14.228275	9.327147	-911.9129	-1111.5255	-4979.4863	-38.483784
He	1.0	10.893483	17.862556	0.91368765	-3376.9417	-365.54935	-3073.5247	20859.057
He	1.0	14.241235	22.43785	20.851791	-3764.7139	-2455.165	-4745.5005	355913.03
He	1.0	10.188751	22.32416	13.537044	1400.8367	6356.559	-90.72938	47.03195
He	1.0	21.031715	16.040668	22.56136	11178.911	9540.464	5201.682	175064.83
He	1.0	9.915341	19.084381	4.776411	-2854.0425	2852.8425	-4478.6475	693856.3
He	1.0	22.772623	3.2607493	22.917868	-3315.5974	7595.38	-3425.3696	2.1770734e9
He	1.0	13.295297	13.680224	12.542672	-5423.409	-875.3263	-4400.157	509182.16
He	1.0	12.838337	18.151999	1.2652471	7068.1987	-2660.1013	8257.278	13077.377
He	1.0	9.522897	16.124971	15.106945	3492.068	8389.206	2785.5117	1.9333371e9
He	1.0	13.416717	4.3982205	4.775417	5156.96	7192.0527	-5457.878	3.138838e9
He	1.0	13.023532	14.277191	3.9726448	8063.946	3700.1118	-5541.9673	-620618.5
He	1.0	21.142397	9.655842	18.277252	2257.3208	-1941.0994	-2837.4226	32787.31
He	1.0	4.5695477	7.9937987	19.324398	3644.3855	182.11238	5631.9214	19982.887
He	1.0	22.671339	8.089035	5.108381	1502.4962	617.5346	295.92477	7.140274
He	1.0	17.62099	3.7192261	14.18189	-3761.746	-703.7805	2954.6492	2.0898652e7
He	1.0	3.9776976	1.8830365	18.315895	885.89233	870.1923	1934.9543	116.84761
He	1.0	9.516303	20.689812	11.132019	593.52014	898.3831	-8070.0254	-132.53702
He	1.0	0.0935784	15.351498	16.8938	-399.4243	-1749.4576	-2610.0474	80980.36
He	1.0	21.829529	9.6239395	6.1829047	3648.3962	-1500.4667	4055.1985	-238133.92
He	1.0	1.739021	14.356665	20.896698	6208.3486	8050.477	-885.37976	-125.63929
He	1.0	2.6029162	18.037832	9.384093	11754.314	1935.5559	-1561.5303	498952.8
He	1.0	17.176126	1.7811848	7.4180675	-3606.3657	1912.2557	-3216.0225	90954.79
He	1.0	8.103033	16.695286	7.316997	43.80065	5031.3687	-4222.0864	16221.241
He	1.0	22.38966	9.975148	3.3445044	-2780.3296	-7884.311	3513.391	-709004.2
He	1.0	22.18512	15.385897	13.932458	1492.505	910.1666	-2294.7617	24.583677
He	1.0	21.441435	13.633747	15.666069	302.71005	3104.9922	-5455.626	82096.58
He	1.0	10.129282	12.414821	9.542555	14636.44	-40693.83	-16992.24	97553.4
He	1.0	16.946312	14.456784	0.15984552	-761.5167	1933.8915	-4207.174	84864.26
He	1.0	6.5970182	2.090488	8.707002	-2873.0068	-2697.6296	-3124.4343	1.3227409e6
He	1.0	7.8024163	9.252775	10.308303	-1824.1185	-2357.714	-3780.0186	76238.37
He	1.0	9.322513	16.86945	22.183084	-4939.2393	-813.5506	3090.139	955025.2
He	1.0	10.542383	2.0015948	3.228679	-118.13168	7379.755	-6342.6694	-446814.22
He	1.0	15.820737	17.318642	19.04135	1225.4054	318.31638	-4581.497	420828.38
He	1.0	20.50509	0.71331584	0.5002989	-11926.578	-1367.3973	-2922.5295	-583678.25
He	1.0	4.599423	15.353422	7.6086607	3524.6482	4205.0703	1026.3682	203809.55
He	1.0	13.725073	8.777098	9.442906	4178.6675	3389.8643	-22699.021	5.387232e8
He	1.0	6.787093	23.964167	12.085032	-5708.913	-1655.4052	-17093.26	977023.7
He	1.0	3.3544357	0.9356341	15.8841305	-14846.017	4634.022	-4393.178	3.1958762e8
He	1.0	11.22733	1.2083855	5.251323	-474.55173	-2409.6316	-3072.8025	64123.902
He	1.0	2.0649111	8.449654	16.215923	6456.879	379.8724	12619.8	1.2282317e8
He	1.0	5.0188966	2.5975628	10.377962	1018.3569	-6475.9707	-6543.5996	884247.75
He	1.0	17.41657	2.600034	12.4468155	-55094.504	38791.9	49944.63	103942.96
He	1.0	10.594872	18.167023	14.643773	5476.288	12072.135	11125.945	7.3223825e6
He	1.0	0.80254114	22.830515	6.253163	7576.3193	6732.295	7824.627	2.0729814e9
He	1.0	4.1075773	0.10640126	1.3727123	2663.2737	-4930.1206	-2792.7747	-374854.03
He	1.0	9.473048	19.81075	15.830411	1324.2255	1622.1453	-2206.2446	408132.44
He	1.0	9.187343	13.486123	22.299543	-1831.5645	-9532.885	-959.05255	1.8354402e8
He	1.0	1.6801633	18.551317	5.296473	-4798.8247	-616.851	1788.5762	148.47914
He	1.0	2.7720916	11.275391	8.899784	4683.622	-636.56903	1927.182	142119.52
He	1.0	24.011375	14.564742	20.049187	5758.009	1937.9719	-23268.188	191440.66
He	1.0	2.6074255	10.220456	15.020076	3407.331	3000.9028	-800.1223	1.1581942e6
He	1.0	13.117524	11.366481	6.412813	-637.20044	3204.6968	1319.8545	5.477075e8
He	1.0	14.764545	22.031328	1.216219	-1659.7136	-14982.019	-3456.5242	2.9799222e9
He	1.0	22.348093	5.658245	4.288641	-5248.8853	3253.5503	1185.5043	5.524309e8
He	1.0	2.0664053	9.35008	21.654392	1351.5657	4796.4204	838.7176	11169.982
He	1.0	10.790597	8.996701	23.950745	-2376.9844	2371.9006	940.9272	345384.44
He	1.0	12.51714	18.626944	10.269238	-5561.7485	11615.26	1651.5132	1203.2074
He	1.0	15.702259	21.262777	6.2711945	-4917.66	5440.229	1431.7612	-386399.88
He	1.0	0.48672038	9.652499	16.818943	1577.0227	-2714.2134	7683.7627	7.698957e9
He	1.0	7.364665	3.0105	10.300006	7759.9946	12537.488	24713.975	224156.08
He	1.0	3.5330663	3.5059965	17.224903	-5987.928	4794.5215	-6352.9453	-199.15848
He	1.0	21.296854	20.555483	9.48855	6913.9575	-18037.486	-3821.2622	3.2277705e6
He	1.0	8.910964	7.584794	8.420631	-3601.2688	2909.1423	1084.137	364611.53
He	1.0	12.668539	20.02566	2.5787833	1990.8243	-5507.515	2607.5256	1.9117343e9
He	1.0	5.9178066	7.8039446	14.483242	-4864.9453	-4251.587	354.816	1.168825e9
He	1.0	7.875947	21.37077	19.204496	-811.92804	3950.4521	9411.458	-904310.06
He	1.0	17.488482	8.304662	23.838734	-601.8023	-1669.2446	-6533.989	5996.7183
He	1.0	10.400251	5.2240853	22.289375	-13597.768	411.8679	91.50969	251932.5
He	1.0	17.660408	4.8520694	19.660454	2312.3596	-1768.1278	2407.265	1.6454066e6
He	1.0	6.0198784	8.321258	12.543244	3926.4385	-2364.8691	-4895.6597	59.14233
He	1.0	6.7818675	0.37441805	22.762148	-1985.4326	1270.5131	1402.1461	32139.438
He	1.0	12.587029	15.076478	6.13781	6878.3066	4321.429	1353.3948	-124.524666
He	1.0	19.217777	20.38117	21.267166	3242.5205	-2223.381	-5411.9404	31422.531
He	1.0	19.83609	6.6208315	15.45043	27531.031	-17855.941	-8173.3687	747137.9
He	1.0	0.025761345	21.218124	7.535067	191.62819	-1846.4469	-2292.2449	67583.2
He	1.0	12.074652	3.4452817	10.461409	-988.1447	1087.5394	-3497.9487	30.026112
He	1.0	19.344002	23.991655	20.006239	-1127.1074	-4420.1543	-5609.6616	1.8530829e8
He	1.0	5.3769765	18.25846	17.318594	850.3286	769.64404	-633.20624	945235.0
He	1.0	12.0429535	13.598379	7.44973	663.06775	1296.4788	-5400.7583	-52.80543
He	1.0	21.43651	19.951677	21.564524	-5638.161	-18627.652	-10858.279	457306.3
He	1.0	8.749491	8.091583	12.492471	25546.424	23822.432	12834.523	175321.19
He	1.0	2.2381537	13.036219	15.854804	-2823.4717	-1068.1284	5440.598	-368026.22
He	1.0	5.5051746	17.49567	5.19894	-13550.165	7575.9595	6467.449	2.3435384e9
He	1.0	21.054598	15.720588	7.53814	-5549.862	-5710.8413	-4013.374	33.46526
He	1.0	17.006668	6.7361865	18.814413	9966.679	-4921.5015	-1631.8433	-1.0038232e6
He	1.0	4.2777343	15.880663	1.677734	4468.6143	-4250.655	-676.9433	1.1710306e6
He	1.0	7.922575	3.8249972	3.629885	-2240.7393	2600.4922	-5907.52	-110.880486
He	1.0	10.956491	3.0280616	6.576713	5525.588	-2185.304	4020.2456	1882.3292
He	1.0	19.502289	7.25597	23.53481	-5547.8804	2790.2373	-2510.3386	-30.056334
He	1.0	15.442045	14.594346	13.602901	16012.548	-60625.63	-2678.972	4.679439e9
He	1.0	9.804316	23.300652	3.5673804	-19007.594	-5274.364	2663.5237	2.0347282e8
He	1.0	1.5658042	7.5319095	20.993086	-1107.8949	-4325.6323	-8178.0537	2.586655e9
He	1.0	7.810607	6.7337546	21.98436	-1147.693	-4372.853	3586.2832	-277620.44
He	1.0	17.478064	10.812702	7.016638	1631.3113	1977.9884	3407.5132	889051.06
He	1.0	22.7721	3.3125317	11.692057	2116.6587	-3574.5076	-3436.0032	-49.404984
He	1.0	14.44195	8.885309	13.531324	842.928	2313.2402	2882.7168	6.474333e8
He	1.0	3.810424	10.238204	22.993862	570.69745	610.04987	1372.7539	1.2279732e6
He	1.0	20.576101	13.78211	13.223214	1738.6699	2367.6458	3307.4993	213363.28
He	1.0	5.1753306	3.4722624	4.6676855	-2372.9377	-1778.905	2183.9717	913495.8
He	1.0	16.607952	11.563334	18.739388	3848.751	3198.4534	2991.4075	23174.414
He	1.0	20.333055	14.684473	0.24597123	-7177.867	15249.777	8632.36	2.854951e7
He	1.0	11.828812	4.786278	12.252232	43652.895	52603.62	-27888.373	1.9178394e8
He	1.0	12.063739	11.860656	14.737832	45631.55	5854.8296	-42009.516	2.9218893e9
He	1.0	0.16699904	13.277822	13.888788	-978.3478	-3246.0332	3452.4512	87.038765
He	1.0	0.5745842	23.668985	15.971815	7403.606	-2270.1646	-264.3859	-116.03234
He	1.0	11.702763	23.873981	3.3562763	12257.0625	389.49002	-1654.2943	552571.9
He	1.0	11.558149	10.671835	2.7247558	535.3284	6464.4487	-4138.689	2.7347853e9
He	1.0	12.77838	9.966675	20.23754	7834.8315	125.67624	3466.0234	1.8990051e8
He	1.0	19.147406	13.495522	2.175317	5657.1177	-2444.891	-14949.981	1.276819e9
He	1.0	14.861481	8.330427	22.760773	-34152.145	5753.383	28273.482	3.7008538e9
He	1.0	7.2763705	6.856455	11.974479	-17095.654	-4204.065	-4181.4697	6.0614856e9
He	1.0	6.0696325	7.72622	0.19900343	-4293.8306	-2782.077	4552.2246	-81.35411
He	1.0	21.479078	12.052772	7.9983516	-1081.3276	-5629.8613	-585.6784	-34.71074
He	1.0	23.37625	21.412348	16.61457	22496.717	-28153.72	11385.192	885520.8
He	1.0	20.755579	9.734297	8.900102	7903.9604	-10874.106	-18300.457	33198.008
He	1.0	5.169229	8.893888	1.6036547	-900.0827	-9207.773	21196.06	601188.06
He	1.0	18.823715	14.146788	16.904589	56403.203	62727.027	124878.37	3.622723e9
He	1.0	9.558076	8.184981	22.045746	-460.22745	-252.24533	1164.1187	729657.7
He	1.0	15.773822	12.476804	12.872282	3118.6082	203.63756	1979.7007	763884.3
He	1.0	12.503215	18.442352	23.175722	1154.1	-1031.4156	-5330.921	671397.1
He	1.0	5.341577	16.12062	3.63454	4254.004	-2621.493	5196.5444	1.7034554e9
He	1.0	22.2267	12.571804	5.8683963	1940.8298	-697.8397	2543.1182	356269.75
He	1.0	5.6225696	3.0826044	19.63358	6109.769	3197.8967	-2464.4546	-287610.53
He	1.0	12.845573	1.703756	0.10536983	-72108.91	72472.734	867.7582	1.2208795e9
He	1.0	15.951189	0.085963674	17.110626	-4338.2896	-886.63403	-514.65796	3.8136883e9
He	1.0	1.0338508	21.094637	4.10562	-2137.7693	-3385.0112	3332.5305	-107708.53
He	1.0	21.610447	18.280258	13.858894	-3334.2498	1461.1462	2057.461	40544.07
He	1.0	19.077671	0.17789964	8.849441	741.9558	3689.6294	-648.46313	1.1354122e9
He	1.0	11.875437	4.757023	23.720732	-822.1703	5125.1074	-4160.5747	-477336.78
He	1.0	10.31144	6.4141006	19.848722	-6595.7563	-4738.021	5882.455	-191.8648
He	1.0	5.954402	6.38929	2.586694	-3899.7117	-6793.1235	-9367.413	181567.23
He	1.0	6.692401	22.59095	4.6338367	-1761.6294	1686.472	421.54382	32.190975
He	1.0	2.8932016	8.838864	10.674056	-6511.414	5181.911	304.22113	-470645.62
He	1.0	22.992092	5.76632	22.145197	6109.469	-10169.412	64.56225	924395.3
He	1.0	15.278809	2.0263536	23.383709	-626.66705	-342.6713	-1460.7186	17.869303
He	1.0	10.709146	18.345707	11.1364565	3905.5625	2547.115	10824.016	-291.12796
He	1.0	16.358202	12.87189	9.23284	-259.79636	159.1834	-4693.572	142430.5
He	1.0	2.617911	23.918665	12.675532	-1214.2031	4274.6616	-343.25632	25.335518
He	1.0	1.2970912	19.961454	14.535495	2077.0176	-224.54501	-1155.5355	187940.44
He	1.0	19.5782	9.592814	7.084329	-4158.5796	4064.28	1932.9781	-57.966793
He	1.0	13.449809	12.067569	19.709835	12218.742	1467.1141	-15365.649	4.8375184e8
He	1.0	0.6750662	12.645919	20.702711	-3634.742	3880.8914	-577.67145	25.834972
He	1.0	17.965433	4.47308	6.925609	3728.041	1898.2129	-165.3191	1.7087507e8
He	1.0	3.3011494	7.520148	12.35521	14031.695	62074.547	3587.8982	3.5399567e9
He	1.0	23.762383	16.238123	11.881549	38.246353	-263.7188	4949.768	1756.7588
He	1.0	20.483154	18.292633	6.3555565	3463.6995	-2028.9683	3097.704	1.2924722e8
He	1.0	0.7796598	1.8368155	8.851014	-428.95682	-2945.745	483.17358	3.2586899
He	1.0	5.8256574	22.26246	19.044596	-2698.5972	5633.579	-7615.6187	-497398.75
He	1.0	8.675361	1.9973698	4.731448	-12487.694	-7014.38	-710.826	1.3034396e9
He	1.0	15.219543	12.202937	1.5818805	3807.4255	1180.8856	4062.7764	655166.44
He	1.0	15.345897	4.0813212	3.5048816	3107.3452	-7686.841	-739.2901	-30.190666
He	1.0	0.5363739	10.019867	22.810995	4204.235	317.04602	2838.2751	-199734.92
He	1.0	4.773745	16.74207	10.282712	-710.0782	-4197.39	-2521.3298	771110.0
He	1.0	8.5028715	4.7648983	21.039635	-19972.805	39363.44	-81238.445	402987.53
He	1.0	19.086012	12.201179	17.50733	1516.8746	170.0003	1013.1227	949122.56
He	1.0	19.279226	15.276488	21.99557	-18132.842	-12583.565	4700.6797	3.537922e9
He	1.0	19.773605	16.412127	14.154151	-1033.1237	-3404.357	3063.4097	28.87313
He	1.0	1.5548841	5.2742915	3.7137609	1284.5775	4162.712	-5394.508	-357325.9
He	1.0	4.8537016	5.1009	19.205755	-6474.095	-1301.8899	-2711.233	-33.31385
He	1.0	11.670766	5.0724254	6.113649	3083.5789	-6326.775	-2105.6104	-39.05954
He	1.0	23.837193	14.214589	21.999348	-1354.607	-4192.6123	30379.611	2.0736417e9
He	1.0	23.787586	1.4233763	12.009746	-2418.4404	6014.288	3083.036	-543171.94
He	1.0	23.69528	0.31739956	9.530343	5525.0586	-9187.884	6288.5435	1.0820604e7
He	1.0	0.82226014	13.2213545	9.409718	3562.383	-2986.9888	4207.8594	37.578297
He	1.0	6.989098	10.009078	12.038178	5327.684	2343.7517	3372.204	-78.71984
He	1.0	5.072581	16.620674	13.462939	-551.88055	-4508.9346	2804.8472	-41.506115
He	1.0	9.801822	8.383941	19.61137	440.37003	6459.1665	1296.8225	-216597.58
He	1.0	3.2523308	0.3248013	20.209124	1351.113	4416.428	2238.3186	2.239813e6
He	1.0	0.75191665	10.154137	0.7315479	-6138.5615	205.25858	4861.097	48953.688
He	1.0	20.415379	22.307772	20.364271	-39183.19	16722.568	-55597.65	6.565648e9
He	1.0	6.97536	3.2098572	22.302061	-5991.5093	-7469.8647	-1877.1995	131607.1
He	1.0	22.491947	19.923418	11.765783	2322.9915	733.1857	-3540.3772	61.85208
He	1.0	13.2826185	18.842892	15.064766	5025.6514	8375.968	9031.402	683250.6
He	1.0	20.956388	2.870247	15.971971	-10981.289	-6055.912	956.74866	3.156107e9
He	1.0	11.624613	0.1583385	18.57579	11993.678	-11394.636	-7448.6245	3.915841e8
He	1.0	14.784533	19.167025	2.7760355	-2083.9219	431.1181	-786.5196	279.6702
He	1.0	17.792114	6.258955	13.7426605	17089.79	15662.133	5676.091	1.1756772e9
He	1.0	9.267552	3.5375578	19.6627	-19.067787	-5660.2183	-4149.5854	454058.34
He	1.0	6.5895615	23.233355	20.779243	-709.1262	-2918.3328	-5715.1777	483539.03
He	1.0	10.932408	2.0669904	17.30097	4047.9832	-503.90817	1662.5225	-2.1137054
He	1.0	19.615967	20.16589	12.572569	-340.5696	-2982.775	3097.2476	60.69962
He	1.0	12.014873	21.29335	22.360458	-6832.4463	-43426.227	64877.887	859851.9
He	1.0	22.884382	0.7867896	7.7662807	-212.05023	-12966.479	-3444.919	41503.336
He	1.0	14.273125	14.066203	8.902429	-5703.025	-2413.8342	-188.13034	17787.072
He	1.0	11.441524	2.976016	15.250877	2473.4268	6353.2534	5725.2563	-179.31316
He	1.0	9.983946	11.689675	22.76774	2608.8354	4528.3496	7326.18	8.895516e9
He	1.0	12.457973	12.033169	17.852983	6090.2803	10253.088	-1286.9401	-291.27094
He	1.0	23.714615	6.0841737	19.467049	-1439.5188	151.33492	1598.861	9312.896
He	1.0	16.85275	21.916498	4.607529	33932.19	-31104.93	-14433.85	4.474766e9
He	1.0	20.628017	6.541461	2.3537836	-9112.273	-3979.5757	3227.24	1.5544933e9
He	1.0	12.777533	0.9741969	7.723613	-596.67426	955.855	-4288.131	58.473442
He	1.0	14.78807	14.367873	2.2852457	2647.6165	-5786.4463	1329.5695	38310.754
He	1.0	14.978454	15.342046	20.053007	44675.773	-44485.77	98345.914	1.8975326e6
He	1.0	10.1182995	21.740292	18.342194	-6751.199	3061.1296	5623.852	7.2400064e8
He	1.0	18.04609	17.322731	22.652908	-2507.2761	-1621.4191	-1595.3735	1.1327999e6
He	1.0	14.322893	10.548657	18.114662	-1018.15045	4002.0396	-1166.0728	1.6223313e9
He	1.0	21.317297	0.839494	19.133177	3054.4946	-2604.4175	-574.4097	-187561.92
He	1.0	18.235893	7.687305	15.941117	-27739.414	26518.719	5638.0156	2.2595942e9
He	1.0	18.052822	14.533795	13.473376	-47277.043	-37974.168	107309.234	4.048094e9
He	1.0	11.825838	15.020501	11.626888	3789.8733	-4296.016	3729.9644	-106767.58
He	1.0	15.535626	18.720005	15.343446	-3061.8735	255.96939	1121.3849	612393.9
He	1.0	13.0852785	8.12672	16.401962	4427.686	13828.068	5287.1226	1.4372062e8
He	1.0	1.8264728	3.2044635	2.4144535	-315.408	-7496.574	4906.7095	36966.11
He	1.0	8.746361	9.098221	14.601357	31735.104	-5023.5254	-14222.604	1.2219392e9
He	1.0	7.0640545	10.469855	22.855822	6674.211	15786.555	-3990.5823	9.5046234e8
He	1.0	5.7483096	17.71087	0.9893753	-1320.9424	-1099.0925	-3269.9678	1.4136458e6
He	1.0	6.5428567	0.53050405	14.865804	-2156.022	-6462.762	-5011.481	-374367.03
He	1.0	16.245422	0.40832373	22.131739	-5306.892	141715.75	32979.723	5.738378e8
He	1.0	12.626371	17.77625	7.512487	-7880.674	8101.675	311.73288	3.3071644e9
He	1.0	2.4301066	12.072687	21.620424	32751.258	13720.12	-115055.1	3.4805023e9
He	1.0	24.009502	10.988772	8.923337	6582.637	143.36137	1876.4075	6.2531364e9
He	1.0	0.10688871	12.034092	6.8571067	-3047.503	1087.135	1030.6989	4.995084e7
He	1.0	10.656013	20.024622	0.7745415	-4626.94	6196.802	2372.1685	369452.6
He	1.0	6.258608	15.78652	0.15866049	10507.481	821.58356	-859.3869	-1.228048e6
He	1.0	14.009645	6.1544194	15.963062	-776.5222	-2147.4888	5957.449	32654.195
He	1.0	18.33214	4.307042	4.9659677	5426.663	7625.524	-3792.5063	197464.02
He	1.0	18.595139	4.6056275	22.562958	4130.9473	-5711.258	-2907.484	293.19318
He	1.0	6.114097	22.839514	10.413458	-4095.6826	1518.7794	488.17053	109.71441
He	1.0	4.075541	1.4844095	12.003219	4004.8254	2730.0618	-1422.4766	-233653.56
He	1.0	17.933786	9.76379	21.148016	7513.6626	8356.941	493.86823	1.3182254e6
He	1.0	4.604099	16.34128	20.635103	-2525.717	-203.55168	1494.3782	1.2998208e9
He	1.0	2.2303047	22.684372	7.933216	-3699.2664	3138.4373	6011.538	14.914456
He	1.0	11.0089655	9.183555	13.596743	-5959.6133	3132.3132	-5203.7197	1.5951131e9
He	1.0	3.7458427	7.9843884	23.579512	-3427.8743	-5800.0293	3975.517	-63.23876
He	1.0	19.92884	18.512535	19.552834	-4644.595	-7560.0093	12335.89	2.340646e6
He	1.0	2.6496909	21.773657	16.056292	5710.379	-19175.078	-5743.5317	91734.47
He	1.0	23.756298	10.229638	20.16618	-2985.5903	1653.5243	-2310.1326	38113.395
He	1.0	6.7828984	18.271145	7.7145805	-1158.9044	-1392.1311	2062.9292	1.4310101e8
He	1.0	20.457937	16.247028	9.505227	-54127.395	15501.385	-2536.2751	6.078374e8
He	1.0	14.96717	19.603334	7.1213374	11043.5625	-9932.768	-27790.129	535912.94
He	1.0	22.248264	4.8055215	17.502306	-2465.9175	-3201.5383	3399.9387	-172023.64
He	1.0	16.129803	18.267454	23.41703	-6424.9795	6813.17	4111.5693	-626265.7
He	1.0	5.661935	20.19899	14.567755	7789.9297	-5727.903	-2566.8237	0.8869826
He	1.0	16.27816	8.086206	12.582397	-199.13953	5027.9873	2481.7012	13334.551
He	1.0	19.562576	2.5637743	3.3341494	-3740.8337	-73.619255	5111.283	1.6070891e8
He	1.0	0.53177005	19.778448	8.883017	1612.4987	3706.153	9658.708	-648181.25
He	1.0	6.706038	11.572876	16.794659	220.70131	4670.192	-1267.5219	10943.4
He	1.0	0.49765104	20.159594	1.5296117	835.26886	-2408.9714	-7964.015	741302.1
He	1.0	22.501936	13.529809	1.9801195	-4716.452	-3095.5662	1569.345	-123700.04
He	1.0	8.273516	11.404113	11.15031	2087.9756	99.85796	3227.248	64.58118
He	1.0	0.6523125	7.6495624	23.289085	3975.3267	8842.063	3630.9087	-58.482864
He	1.0	6.56294	19.640879	21.524364	-1468.5118	1985.5717	3078.3506	53.670017
He	1.0	8.448012	5.031817	5.3662677	1349.3536	851.2871	-1157.1514	21937.102
He	1.0	17.641605	1.9497062	9.392948	18912.098	9444.726	-2945.4114	412783.88
He	1.0	13.634356	4.0275407	0.6099753	6091.4062	-336.1577	4630.676	40920.91
He	1.0	14.846261	22.765793	14.298609	-22893.248	29075.162	-3689.372	819108.5
He	1.0	8.137636	18.672194	9.382031	-4646.9893	-1399.8794	3696.5063	-71.66405
He	1.0	8.173357	7.465465	2.4519405	5151.2983	2749.7722	-2892.9128	5.602203e8
He	1.0	16.629932	9.696191	10.465886	-1968.4265	-1084.7266	1729.1052	67.85172
He	1.0	10.390792	23.278421	5.5147314	-1344.5626	4936.846	2620.9417	-313944.53
He	1.0	23.167925	4.6749444	13.711125	41381.766	29708.947	-9557.937	1.0105993e8
He	1.0	3.6494584	11.130363	5.732538	85860.49	16615.693	-72305.266	2.330731e6
He	1.0	21.602549	15.929988	4.967719	-55278.902	-86962.56	-5518.497	9.192191e9
He	1.0	10.437766	15.79851	1.606288	1332.4525	2848.0706	3520.0435	490360.94
He	1.0	21.259113	16.680708	16.514753	563.45264	-1381.7632	-6460.088	81.049416
He	1.0	17.673094	3.0209332	21.216223	5053.9644	-2080.1843	4764.697	113.83476
He	1.0	5.188784	13.151891	5.15156	-2106.185	-123.985664	-11791.55	6.419773e7
He	1.0	21.274405	22.740385	0.20242988	8190.6724	-4348.0303	-8453.286	-1.4138409e6
He	1.0	21.689543	19.340763	0.96477926	407.6955	-3716.2021	-1896.9292	2.5709894e8
He	1.0	3.655656	22.48669	19.811155	1793.2837	-2161.7153	-1832.1453	429.20825
He	1.0	13.181243	6.328596	5.667176	-2463.0203	2770.9292	1769.5814	313839.84
He	1.0	9.384959	14.932705	13.468609	4195.3477	-435.61484	-5701.5967	190494.27
He	1.0	4.7374744	1.0784138	9.016692	3179.2195	-6736.994	-3462.601	-38.29699
He	1.0	8.501609	8.956368	5.87529	123.45885	-3683.2546	5252.924	-26.806644
He	1.0	18.21721	21.792374	22.313715	10418.912	1226.9226	-3119.108	-1.0662019e6
He	1.0	11.862893	20.541632	10.567854	12463.15	-1012.31445	-6735.9897	-1.9199272e6
He	1.0	7.005206	18.560736	2.4065185	592.8895	-189.94774	859.8774	160.77774
He	1.0	16.256079	12.8169155	16.176416	-2898.85	1540.5288	7559.4844	-146.68353
He	1.0	22.584408	11.33807	1.0697058	-2079.6938	-5464.8154	-750.77167	231762.38
He	1.0	15.497562	2.6186576	14.372505	3355.693	-6534.461	-6427.103	-994542.8
He	1.0	3.6077008	6.471761	14.165416	-2954.942	696.0879	-1518.7612	344841.6
He	1.0	14.232783	14.120077	21.689594	-10145.96	4414.5176	901.3805	315149.28
He	1.0	17.40391	10.090075	1.1543385	1464.5895	-2761.4639	8378.66	1.8608794e8
He	1.0	4.5069227	18.225248	19.118628	3666.7307	-433.2087	-1021.91064	101.26508
He	1.0	19.298496	20.647448	4.310319	5645.123	1261.1846	71.53312	927070.4
He	1.0	23.93748	12.8740635	4.37996	-22495.033	-7401.7593	72878.23	74511.62
He	1.0	7.223731	14.95376	6.8967347	96.13796	-17771.924	3488.7043	165631.12
He	1.0	4.1092052	22.753649	5.829757	2203.0046	-4401.55	2254.1965	-13.074446
He	1.0	4.929928	6.4658794	12.587484	-18504.066	2940.1191	-36969.465	6.037418e9
He	1.0	14.9028	22.252626	8.131703	4905.5415	3701.8447	-2531.7212	-3.4366887
He	1.0	13.495205	1.7887397	15.211563	-31764.076	-30743.855	-77965.71	1.9894758e6
He	1.0	16.827126	1.2010776	1.0118695	-4623.1143	-846.7837	4974.1816	1.1587805e6
He	1.0	18.374365	6.176401	17.300886	3592.3313	-3268.1785	-1817.6289	7.2899895e6
He	1.0	18.433018	15.915676	9.76328	786.01447	400.17764	-2227.3726	385442.2
He	1.0	14.163619	18.748316	18.883902	81544.24	24043.72	-22145.318	739671.4
He	1.0	15.11681	9.449384	4.400329	-4885.427	-5285.2515	-7016.9893	3.0853216e8
He	1.0	17.934938	4.803958	12.010641	-3480.6338	-463.78928	-626.8956	13959.3955
He	1.0	9.539981	17.749487	16.821016	32759.51	-14678.348	13666.974	3.2669166e9
He	1.0	17.071146	20.791458	13.2505	3396.0354	-6233.227	8757.018	9.629546e8
He	1.0	11.775534	6.9843006	23.699827	-2106.6895	5665.534	-4244.654	139.8852
He	1.0	0.662364	7.2774463	6.8867826	1483.6068	4874.9536	1813.6385	1.1071108e6
He	1.0	4.205621	6.8354516	16.841736	-94168.1	50239.004	-34468.56	2.628805e9
He	1.0	8.415374	20.864273	17.260796	-1489.2955	-2410.3833	3215.393	69.65779
He	1.0	17.044636	0.9538525	20.153551	-3857.559	2888.416	-808.06586	198385.81
He	1.0	2.6005802	4.0080113	5.200257	20492.588	16765.78	8428.691	2.661896e9
He	1.0	4.5644546	12.252717	10.914456	-9258.049	2317.827	2867.0784	905464.1
He	1.0	10.698185	4.896718	3.6405523	-17880.875	22893.16	5301.4927	771299.7
He	1.0	7.91247	13.326326	14.991759	1574.4268	5986.722	-3389.909	-0.5961339
He	1.0	6.2673526	14.576443	18.8956	3345.1694	-1435.9926	827.86694	3.76175e8
He	1.0	10.053737	3.4363992	4.8422675	9073.923	2292.3	3831.9448	50330.137
He	1.0	6.949178	14.708259	1.7977833	3242.4692	2145.3457	-4291.6133	-311484.94
He	1.0	6.581109	17.336388	22.25945	-6240.135	4291.782	135.82993	996850.25
He	1.0	21.47274	7.4580855	23.203152	3683.8816	-3163.0237	-6104.6943	-315243.2
He	1.0	18.572344	18.417582	6.9547615	8103.1494	-12276.175	-12061.021	9.560008e8
He	1.0	10.702869	20.128988	14.098521	-1615.3218	-2417.3423	4500.039	110.3962
He	1.0	0.95701647	3.6891935	12.950973	-776.9966	216.23427	-1559.3232	64.63762
He	1.0	19.72413	1.773232	14.451831	5348.087	-2483.1636	3641.294	-54.274483
He	1.0	17.541761	21.113373	17.377975	-6823.675	-3649.5718	-3427.6626	202264.14
He	1.0	23.134045	21.537928	2.3158307	-4548.255	-589.44293	1341.5547	528231.8
He	1.0	12.902647	3.1097898	13.555966	636.7464	1224.151	-262.1293	1.4450619e6
He	1.0	2.8924978	13.806934	17.78587	3580.7942	4128.269	-7301.6406	53.63882
He	1.0	0.3141637	17.797388	2.6662538	-20793.555	23550.045	11219.002	188983.31
He	1.0	18.246298	10.165487	15.817934	23264.459	-17511.89	24814.748	42858.734
He	1.0	5.593735	14.455453	14.658509	-1055.8849	3415.0256	-960.0164	3.510099
He	1.0	17.185568	1.0032535	15.658696	413.23856	2557.0073	1895.8253	7.2397485e8
He	1.0	18.933994	14.521177	5.967333	-3073.6384	6550.5625	3955.1123	72.04671
He	1.0	20.937237	13.079929	23.303211	-3741.2495	-6315.8774	5843.909	2.6056758e9
He	1.0	18.207878	11.529357	23.35655	666.9498	-3948.288	1959.7733	40.160137
He	1.0	0.5706078	16.28643	22.827953	-2827.1196	-1222.5656	-830.40643	46.415382
He	1.0	23.529423	18.525831	10.0354595	-39566.727	14364.796	-20745.111	7563.7017
He	1.0	12.639067	11.55987	21.456589	-5288.62	-4338.246	13566.971	94972.94
He	1.0	24.030945	23.665949	12.81326	2068.1328	12363.923	-2321.6846	1.4873871e9
He	1.0	17.964628	19.33375	8.612781	-6909.8584	11074.034	27627.021	49004.797
He	1.0	11.6517105	22.155148	16.982384	-5992.362	9485.391	-5119.377	-276.93655
He	1.0	12.493868	6.3600483	11.229933	2591.756	11906.622	-12217.266	2.951299e6
He	1.0	3.3773127	11.381488	16.483818	2471.0637	4728.7715	5198.0225	-88.30136
He	1.0	15.414988	15.260461	10.25409	-1561.0615	2179.3923	-4759.1104	496801.66
He	1.0	1.0968841	1.8106285	22.900948	210.41106	-2669.7708	-6351.1753	28.606863
He	1.0	16.73387	3.34371	5.6818147	-4414.861	-2845.2053	7055.341	37840.246
H	1.0	16.290598	3.5787861	0.080156066	228013.73	-384674.03	-270989.47	5.275586e9
H	1.0	7.219849	12.822142	5.7125893	92353.12	349881.66	298365.3	238186.5
H	1.0	15.128001	7.274576	5.079402	160525.78	433604.25	115567.68	-115726.58
H	1.0	7.9704013	18.581944	13.503825	562802.94	915577.3	35525.133	-2.4127685e6
H	1.0	21.79936	3.3911994	5.8408375	32187.277	37879.215	-21620.436	942095.25
H	1.0	18.201422	0.07381775	0.05156101	-167019.98	323723.12	-111286.12	1.173481e9
H	1.0	20.365772	5.39332	6.3926516	-19209.697	-198019.81	-354042.06	-9.8141805e8
H	1.0	19.52951	6.7759347	9.292667	-328941.97	436989.34	407227.53	-721403.0
H	1.0	20.141249	10.595145	2.3881845	84445.61	-511233.8	-54781.81	-1.8943885e9
H	1.0	4.6071815	10.180611	18.897486	-111281.26	-260867.12	-109842.66	-1.4076442e9
H	1.0	2.8032515	15.920806	22.9339	13600.282	188665.75	419128.1	-192831.17
H	1.0	5.1388397	3.908818	8.77403	182880.67	327976.53	-114505.18	2.1834668e9
H	1.0	4.079079	2.832669	23.891392	-21557.266	364213.53	10969.617	-776134.8
H	1.0	6.824615	11.162996	4.045765	205558.3	-292263.4	-301704.6	-310738.75
H	1.0	10.574777	1.692066	19.27278	456123.2	204734.83	-422623.97	7.039841e8
H	1.0	2.3455884	5.2609	16.00944	739544.7	-142318.19	-52822.418	-4.724252e9
H	1.0	3.0027092	13.625248	22.855955	-249310.06	464677.06	81178.49	-3.4258737e9
H	1.0	1.5255184	10.965999	4.397612	398662.5	330099.06	-342769.7	-610732.75
H	1.0	16.671816	6.176441	21.092813	325747.03	149669.12	13735.965	1.8228456e9
H	1.0	1.3656954	7.5031533	12.106597	164841.42	22018.938	-12506.461	-923046.8
H	1.0	11.309092	20.969019	3.815756	-312721.66	526437.7	335898.94	-1.2062468e6
H	1.0	12.002307	23.139921	7.304315	168770.1	451003.47	140690.62	5.0760458e8
H	1.0	5.779388	0.86768645	19.154083	-414756.56	1458.0621	267839.56	-2.7441219e9
H	1.0	18.650747	12.902944	4.002803	299690.0	201973.55	-295572.78	-554374.94
H	1.0	4.660344	21.565926	21.833637	-185019.61	-313553.56	-397337.97	3.030476e9
H	1.0	19.943485	18.662964	3.4205973	-13862.557	143056.48	-93067.84	791632.94
H	1.0	15.544596	7.023322	2.9224904	544215.44	93915.414	-119804.484	-524361.9
H	1.0	20.785532	21.40963	13.84584	-313409.88	-16954.46	-324196.2	3.2259658e9
H	1.0	2.4725995	21.846905	13.637691	-56518.363	313978.03	-232763.84	36987.453
H	1.0	17.348112	6.6405106	1.467586	131380.08	202731.42	88992.1	9.122098e7
H	1.0	10.655645	19.121393	7.2321496	73403.695	165544.66	164245.56	725865.2
H	1.0	0.5343629	17.306612	13.405445	87642.76	495857.6	-231148.97	-1.0400359e9
H	1.0	2.1059713	23.950611	22.839125	-89042.85	-447525.1	155761.05	-67565.81
H	1.0	21.527985	3.656519	14.114618	75813.39	87017.086	-10547.812	-93446.88
H	1.0	0.07289139	8.231249	9.389414	43979.93	109936.3	-272469.38	3.3295212e9
H	1.0	7.058638	5.4063644	7.2601914	-83905.65	1.0137915e6	602127.9	-1.5143295e10
H	1.0	7.9056892	1.8282094	20.127575	96400.82	18585.797	-234159.97	55712.56
H	1.0	20.468134	18.028322	23.622103	-215021.23	-125849.6	107418.84	6.2802253e9
H	1.0	16.098024	19.51699	18.116499	-5636.772	-167152.94	37183.367	1.4709142e9
H	1.0	21.271473	4.6183486	2.2361999	-38309.984	27269.293	179772.42	3.351737e9
H	1.0	9.915877	13.226304	14.541817	154912.58	-238442.44	256643.36	-311376.34
H	1.0	1.102657	12.965688	17.578337	26258.438	328678.03	-28505.184	365021.16
H	1.0	13.287156	16.00769	21.057255	259398.83	302302.75	190054.25	-2.054973e9
H	1.0	14.419758	16.94773	7.136548	-85371.93	-568644.06	119430.94	-788055.7
H	1.0	0.23713355	0.02084207	2.9951117	-202628.61	103309.305	127856.49	-6.5714944e9
H	1.0	15.5328455	4.450191	17.688852	-112006.57	13382.556	646847.5	-837721.94
H	1.0	20.925806	6.7020593	21.111946	785358.56	595766.2	-102410.19	-2.2073748e6
H	1.0	20.93464	20.924788	2.2335398	-117447.51	-208365.25	-520772.62	-3.4995333e9
H	1.0	14.617713	16.63103	15.883124	62494.117	-282919.3	136726.4	4.1062817e9
H	1.0	8.679726	23.038506	1.5730497	-116179.02	-105689.63	248351.12	645365.1
H	1.0	3.695333	11.475968	12.609843	129689.79	-3621.987	-245581.4	42896.535
H	1.0	0.2207889	17.389956	8.010131	-33475.062	-133927.28	196378.9	270611.2
H	1.0	19.610256	16.052006	18.632034	214849.22	294088.6	-681440.5	-328607.06
H	1.0	7.75527	6.6646338	16.522552	100128.96	-825.0305	183646.56	8.855989e7
H	1.0	18.830256	17.819365	12.856407	303032.0	543876.06	-81673.66	-682913.25
H	1.0	0.2595175	23.785137	21.905046	123360.27	717446.1	-504585.62	-795325.3
H	1.0	4.41296	18.21457	3.0486832	493960.3	-400015.84	234781.6	-635076.5
H	1.0	3.1001766	15.759953	12.717942	-176841.06	33698.71	224171.5	971152.3
H	1.0	13.627345	0.6893835	16.851683	-258559.66	-134357.5	-22342.787	-6.108171e9
H	1.0	17.048048	17.908518	16.77925	-602730.6	138675.75	-6703.2905	184050.7
H	1.0	4.1880293	9.165121	15.98702	39940.184	-156373.3	228599.95	303869.7
H	1.0	20.593273	16.553871	1.33461	530197.94	-453166.8	325644.7	-1.3347194e10
H	1.0	19.808197	12.901161	10.7849865	-179466.23	86091.51	-83168.664	1.4584724e6
H	1.0	23.934443	20.886938	22.215664	-299001.06	-806.7277	-172179.94	177617.23
H	1.0	4.054983	14.832912	5.613786	516738.47	343492.34	155356.56	-352854.6
H	1.0	19.4231	14.177845	9.118323	-831165.8	301523.72	-91634.01	-1.2725968e10
H	1.0	23.059616	21.923435	12.660937	-53542.023	130536.26	-315640.9	5.3203232e8
H	1.0	18.121458	13.3464575	15.254142	-226149.58	-99803.12	-623754.4	-2.1226975e6
H	1.0	4.102951	21.047115	3.872942	-26013.178	37392.277	-76394.42	218544.89
H	1.0	2.0985801	10.439458	11.762846	99207.48	-887849.25	59571.633	-1.6841309e6
H	1.0	17.759367	3.168693	18.392838	-100355.516	-431264.34	-282751.6	1.6717731e6
H	1.0	9.717955	21.649878	20.514858	280874.72	-92367.29	-324188.38	1.2188842e9
H	1.0	18.510687	2.1794574	16.62708	-130263.82	-219947.97	-81682.57	-92464.26
H	1.0	15.09051	10.475403	0.47831726	-30219.865	-135103.19	152187.81	332804.28
H	1.0	10.785513	7.6531024	12.319941	277443.12	195815.81	-392098.75	-368032.6
H	1.0	17.989777	16.23604	1.7751825	-57370.656	-388116.97	118242.93	-509657.9
H	1.0	5.355179	21.80801	17.153101	-140895.2	279216.06	95233.234	7.5391795e9
H	1.0	19.342346	11.210951	5.3404465	-472040.78	206808.84	-186384.67	8.4223283e9
H	1.0	22.129393	6.497254	9.574659	-188680.75	-199318.78	-401761.38	209504.64
H	1.0	8.682642	0.23595229	5.827168	-249273.95	-157759.83	391003.25	8.2133677e8
H	1.0	14.567854	7.2902327	0.9213829	130856.0	640139.0	-63565.39	-463841.9
H	1.0	13.337495	14.018851	17.159428	133360.42	35816.41	323591.47	431224.28
H	1.0	1.3016956	17.88484	16.7688	113501.13	-18143.693	-152429.06	103573.29
H	1.0	20.114595	19.09474	17.6536	-871.4013	120752.84	-11567.503	9.847441e8
H	1.0	16.170225	7.8508577	8.532452	-426269.66	-415427.03	255407.86	150128.88
H	1.0	8.934165	21.747124	4.9505343	-687517.2	-29399.07	558824.56	-3.2428406e9
H	1.0	7.8513165	18.659994	16.3242	-56133.645	203228.2	428150.84	-323955.16
H	1.0	5.152002	14.10041	12.004555	-305872.22	-508515.94	-287085.4	-853063.5
H	1.0	22.033365	23.236624	13.768214	-600209.5	-512494.84	273193.53	-764289.25
H	1.0	5.496843	4.8035607	11.5808735	389532.28	94093.7	686931.75	-1.5941472e9
H	1.0	21.725674	11.84863	13.627777	-8787.497	-267417.84	-144203.53	1.9024015e9
H	1.0	10.384597	24.043125	20.293987	-147604.9	-246168.66	-98441.695	-1.1952516e9
H	1.0	15.897727	1.1711255	13.004391	182356.58	518826.84	-48872.207	407266.84
H	1.0	8.808882	4.1182456	22.84312	358365.0	-26405.992	-484123.8	-4.95327e9
H	1.0	16.035757	3.6616569	10.499129	-85870.92	-162899.89	56778.387	2.216706e9
H	1.0	12.863845	1.3838017	2.9314318	-122833.58	406452.2	-196612.25	-897387.2
H	1.0	6.9047894	14.329099	20.791557	-513517.6	373150.4	-3890.5374	-342297.7
H	1.0	11.241806	14.450235	19.12091	168828.2	248243.88	75006.41	3.1177446e9
H	1.0	5.8444705	5.875468	17.328262	-135169.42	-367447.22	-199528.89	-1.0662339e6
H	1.0	8.679264	12.145562	16.464672	251147.8	65186.27	-158367.11	5.9765946e8
H	1.0	23.073503	11.944203	18.865885	-199740.94	241318.06	277334.0	574517.0
H	1.0	16.539803	14.761926	18.984488	235020.81	-200896.12	-432458.03	-7.9334374e9
H	1.0	17.150404	1.7208153	4.1876025	-154739.94	-100993.92	368212.53	280787.5
H	1.0	14.133054	20.134962	16.523508	451185.8	355805.22	135545.48	-1.0805851e6
H	1.0	12.440869	18.401272	13.28234	-187752.31	-265738.28	-251312.02	-652016.5
H	1.0	16.002579	19.10842	12.812978	269357.66	395643.8	80077.32	-1.24195784e8
H	1.0	2.093161	8.445502	2.2979853	-107760.6	41099.54	110654.8	-6.981729e8
H	1.0	10.544666	10.803558	0.9367481	-147401.78	-340809.62	-129781.75	-5.705413e9
H	1.0	3.5860174	20.456709	19.92545	401842.75	-249925.52	2833.5105	-320704.62
H	1.0	16.886265	8.741612	14.69574	-474947.88	199408.86	-726605.25	-9.287198e9
H	1.0	0.16574986	16.538113	20.854952	936651.9	94090.93	288775.6	-1.448092e6
H	1.0	2.026654	12.081394	10.7698145	46251.492	-173461.28	-21882.852	-1.7108609e9
H	1.0	18.488039	6.759988	7.4577155	377231.6	211100.55	-32366.938	-8.1143695e9
H	1.0	21.282604	20.737196	19.518906	205864.62	-40126.78	134047.5	-1.4901426e6
H	1.0	7.176714	16.862503	4.250752	689924.3	166901.27	38756.39	-1.734535e6
H	1.0	19.715673	16.732662	20.462723	82768.984	-50554.523	-179250.53	108888.64
H	1.0	0.8656562	14.761476	3.45452	-128718.67	-91884.35	-19273.973	1.1181801e9
H	1.0	17.277582	8.28772	6.619835	-84829.49	-355735.0	315061.56	-3.0289843e9
H	1.0	0.26497805	12.764463	2.4544435	89738.87	-740804.5	51656.156	-5.535441e9
H	1.0	1.6721165	11.263716	18.408987	-267053.2	142124.12	263762.88	-397710.1
H	1.0	20.538054	1.575516	8.935127	149974.17	-255110.02	-102267.29	949421.25
H	1.0	21.457178	2.710419	17.940548	133480.88	809613.3	-145332.72	-5.0634404e9
H	1.0	12.775911	12.216453	10.383211	219727.89	-552443.6	-156786.19	-772820.25
H	1.0	5.7086334	9.461501	20.61957	226599.16	-155778.78	-53425.88	-7.3242406e8
H	1.0	13.718758	5.0562763	21.288555	-157397.4	344542.66	-313829.72	-1.4385453e9
H	1.0	8.478757	16.094221	1.0206149	-52018.207	-24464.219	64469.113	601973.7
H	1.0	12.070785	22.432901	20.768238	-374664.38	-282020.7	83806.44	-5.704476e9
H	1.0	15.414768	13.935063	4.2421	33661.84	122567.305	60789.316	114867.87
H	1.0	5.558187	15.599357	22.24589	92173.74	208120.67	-371034.5	-4.326504e9
H	1.0	12.198274	8.278523	5.0548205	39134.793	560821.94	-373035.62	-2.8959546e8
H	1.0	21.473976	5.4196453	15.257281	-67107.66	-518467.06	3565.4873	-866876.1
H	1.0	1.496437	6.3416405	14.014096	-108547.08	-366685.44	461716.1	-3.773482e9
H	1.0	7.6432185	18.321648	5.8006325	721782.25	-69515.67	-607217.06	-5.909915e9
H	1.0	11.901769	4.2842245	20.374615	-163585.0	-72107.86	-104325.7	1.4248966e9
H	1.0	20.732111	17.22788	11.751098	-351511.12	-510639.97	-130245.195	142737.88
H	1.0	6.8055553	11.361705	0.75268716	-131633.84	-125491.12	-518284.3	-4.325624e9
H	1.0	15.440254	23.134676	5.2704177	-485123.66	114379.93	453630.7	-6.1931315e9
H	1.0	6.37247	10.239489	9.114407	141460.75	230500.05	-77439.73	-272069.62
H	1.0	19.139664	22.916735	14.052052	810015.06	-48153.23	76909.94	-7.6141773e9
H	1.0	14.694943	6.3837495	20.002241	331481.3	-51889.816	99118.086	-1.1097851e9
H	1.0	6.004151	22.713762	23.743164	149002.3	374301.62	-253103.72	-118751.64
H	1.0	7.963875	23.393145	13.594003	151515.67	-401492.97	-438953.16	-609499.7
H	1.0	3.8405027	11.661464	19.888895	202888.27	-166768.3	-393278.56	-312698.84
H	1.0	13.346614	9.198332	6.4205394	484770.6	276267.0	385184.88	-7.20928e9
H	1.0	15.281766	9.37837	19.61975	-27421.768	-97360.375	73643.01	228047.72
H	1.0	23.393118	14.765433	4.8556952	-50105.26	253043.9	318019.88	-582576.3
H	1.0	0.33251557	4.592261	17.643341	140634.38	218886.8	54319.418	3.46424e6
H	1.0	12.298714	13.371483	22.341522	419084.56	-365596.06	-607976.8	-504121.9
H	1.0	23.413721	21.639267	5.646149	219419.62	40989.277	-132773.53	8.5022746e8
H	1.0	1.4832263	2.6097863	4.3099465	166182.7	-125856.734	-18252.602	-1.9263361e9
H	1.0	23.836943	6.435141	17.16169	433019.56	527185.0	148798.23	-2.525192e6
H	1.0	4.621826	9.662912	6.93452	388737.6	-356407.12	-270278.66	-1.0372694e6
H	1.0	13.907484	20.634277	19.454285	-406817.25	79504.72	13679.961	-217448.06
H	1.0	16.438635	11.121318	20.806038	-365871.75	-236230.55	395476.66	33008.07
H	1.0	3.9056659	13.571649	20.234354	-354425.47	-787671.5	-397179.38	-1.3684833e10
H	1.0	21.696218	20.76594	4.6567593	63203.926	641058.5	398622.97	-5.033773e9
H	1.0	2.5050304	5.204404	11.265772	-47190.355	-504597.97	105473.01	-633290.06
H	1.0	22.761663	15.268192	3.0399895	-87214.24	-138340.61	39891.64	6.079467e9
H	1.0	14.104315	11.07515	9.444215	147696.73	455990.53	-7619.698	263521.62
H	1.0	7.889347	0.26262563	3.7700872	-210950.27	-185554.66	-583373.0	-1.3109015e6
H	1.0	20.438684	22.188541	10.211745	-203441.12	-42626.395	-123494.7	1.8693787e9
H	1.0	20.108442	10.598645	16.805885	-87669.9	-33862.133	457722.34	-272381.5
H	1.0	22.399952	15.846369	9.45238	345893.06	-180585.02	-122667.63	-452190.56
H	1.0	4.8186812	3.58404	13.471098	253940.11	126775.516	354572.0	1.6831556e9
H	1.0	13.040332	23.941662	13.246625	446731.47	-193360.33	122834.13	-527663.44
H	1.0	12.16155	16.147808	0.11536384	-265171.94	-145162.3	122608.43	1.2126315e6
H	1.0	9.2384205	18.571264	2.0492167	486787.3	-103546.93	-43187.34	3.8915978e9
H	1.0	0.82597136	14.944261	7.8988686	-15617.199	-408974.03	351396.6	-2.8346191e9
H	1.0	12.728717	23.331963	1.4308431	200465.38	-324661.66	-360442.03	394790.3
H	1.0	12.896604	11.990973	0.9997296	-70926.41	-646171.4	5713.0137	-312533.66
H	1.0	17.113693	11.049066	4.957179	-126560.97	-174620.69	-461413.44	-2.3172134e9
H	1.0	0.93190217	23.049194	1.4468144	14934.679	305759.44	258284.95	1.1863721e6
H	1.0	14.278959	5.3899856	11.588521	-13335.311	-430519.8	-625295.7	-586906.94
H	1.0	18.433558	4.716732	2.996192	-433025.4	75197.31	-118115.875	-514862.28
H	1.0	15.383615	2.6505568	1.8707087	74688.43	-222464.39	36855.1	752163.1
H	1.0	17.263239	11.476637	2.6918852	-134082.56	-992650.5	50284.777	-9.962149e9
H	1.0	22.586708	11.802183	21.80364	-352152.53	107927.35	-541573.7	-3.6289554e9
H	1.0	18.135677	23.214167	3.5860403	330680.0	367882.75	107421.48	-483039.22
H	1.0	6.7871876	14.9286585	11.033524	190324.55	298651.3	-514803.28	-3.0121326e9
H	1.0	19.836168	4.149235	19.504215	465245.62	-134039.22	-251356.62	625385.2
H	1.0	16.247744	18.072088	7.7859187	-63371.83	242666.47	109190.914	345640.53
H	1.0	13.901205	19.910322	0.6335967	-212145.31	139811.19	-194380.84	-6.524137e8
H	1.0	16.272715	22.63011	21.643318	-86911.61	581942.3	-144965.45	-1.6769005e6
H	1.0	7.922345	8.715376	23.37151	-245662.19	-263749.47	571484.4	-5.6628634e9
H	1.0	22.728899	9.439952	8.208821	-14075.668	321115.72	226102.36	-1.2484241e9
H	1.0	23.650509	4.170476	4.568964	197393.47	-161609.0	-313045.4	-751159.2
H	1.0	21.44305	13.586323	21.411055	413575.9	228492.69	-164537.19	-1.1190546e8
H	1.0	13.224175	2.4216557	5.032597	-506243.44	-270890.62	-200785.19	-4.4432174e9
H	1.0	17.98325	19.53302	11.033284	52374.016	78272.805	31507.77	381946.8
H	1.0	16.044674	20.283718	22.71789	-388627.5	-27703.023	-108991.59	-1.1359201e9
H	1.0	4.884406	12.485148	14.440157	63374.902	232198.14	-133710.84	3.3665354e8
H	1.0	10.742795	3.3656487	13.074489	-230954.31	-376364.9	327764.88	-594433.25
H	1.0	8.637015	11.422912	14.6292305	-69897.625	44491.82	43188.156	569204.25
H	1.0	12.757096	10.325485	12.273647	412294.16	-119648.39	809060.1	-1.7924959e6
H	1.0	9.317011	14.058239	10.266574	543195.9	162400.6	202162.31	-5.4148526e9
H	1.0	1.3281622	17.647549	0.6324362	-292731.47	-13788.988	403371.72	-379510.78
H	1.0	20.393631	23.261024	22.063421	363705.25	-450263.28	-177035.45	-893826.1
H	1.0	5.644348	12.180135	19.094357	28406.453	208544.52	58965.523	507590.0
H	1.0	20.791922	9.03563	13.142121	195196.77	115015.3	-99811.555	8.528958e8
H	1.0	12.803762	8.819631	23.512428	-328829.03	139502.47	-63077.914	-1.0846508e9
H	1.0	0.50849444	3.7174041	21.959793	-69102.984	-87280.72	8034.668	349031.75
H	1.0	0.031055788	2.3176098	2.5580974	-75073.73	636506.7	25752.98	-1.9394592e9
H	1.0	15.233384	14.696171	17.137764	619831.2	-146142.64	-560239.7	-6.3411717e9
H	1.0	21.338434	1.7768971	12.503285	-97344.15	-368006.03	209503.3	-421172.28
H	1.0	17.754847	14.302745	7.673169	-172069.23	-253346.92	183932.23	3.7697114e9
H	1.0	10.574852	11.586825	16.009407	420539.53	233359.81	126018.38	-601347.25
H	1.0	16.508858	21.020807	2.6604297	-10084.828	-359582.7	108736.97	9.051637e8
H	1.0	11.354008	0.22169943	9.129809	-76656.484	-245283.17	-49383.54	-5.839366e8
H	1.0	2.9217215	6.664577	7.9360228	-225234.16	-13005.321	-338051.4	553485.2
H	1.0	12.710053	14.2098055	1.1473266	-59534.25	-932788.25	77868.664	-1.6614675e6
H	1.0	0.5659519	5.163193	6.170955	125169.82	31337.33	-411476.84	314267.4
H	1.0	0.46508995	8.198688	19.388756	-352618.3	-368134.22	346035.12	-1.2706752e6
H	1.0	8.017324	22.02026	8.695761	67353.06	-464454.28	146451.95	-386455.16
H	1.0	11.689588	8.86772	21.72175	443449.8	-348077.34	-185083.94	-80746.53
H	1.0	22.179274	9.400026	10.699261	7229.4165	-33969.73	190090.48	492282.3
H	1.0	6.1947203	2.021994	12.299299	138642.22	46296.25	265529.06	4.5760093e8
H	1.0	18.281069	2.4453945	23.494762	219216.22	-314865.47	-548954.9	-160851.14
H	1.0	10.009105	22.641115	7.695104	341679.72	-203868.7	592867.94	-1.5999185e6
H	1.0	2.6366076	13.200806	2.3373628	87248.59	350087.66	-303326.7	1905.9232
H	1.0	0.5742024	4.4878755	0.9220899	66051.125	45937.21	-73712.66	1.1782798e6
H	1.0	21.174719	0.2495381	10.825061	-518331.8	-194833.4	-101231.59	1.9031328e8
H	1.0	13.515899	2.999529	22.536474	-81183.97	-189503.55	187332.45	3.2183245e9
H	1.0	23.202663	2.7441273	7.4813166	302711.1	107903.77	-788707.94	-1.00774225e6
H	1.0	23.056456	14.743864	7.1725664	488328.6	-612192.1	-85482.36	-3.1716283e9
H	1.0	2.4902763	3.964593	0.013897559	142402.47	-176437.44	14134.763	5.065498e9
H	1.0	19.443226	15.988138	4.5054107	-210350.64	23704.6	250977.92	-5.4096056e9
H	1.0	22.360018	0.42306525	23.281069	-278092.03	-126425.375	15399.143	802101.6
H	1.0	22.491743	12.4128475	10.093661	61526.234	-170426.3	-226342.77	1.6143729e6
H	1.0	5.589304	18.805264	10.17361	-144613.88	-433451.06	-78255.18	295614.8
H	1.0	19.09024	20.670477	23.825788	-205184.1	184950.19	-237893.06	-1.1948306e9
H	1.0	9.160074	19.712605	18.860294	-177188.73	81449.48	-10505.272	670502.4
H	1.0	18.781794	15.213401	11.793613	79767.53	215042.03	60957.137	607600.56
H	1.0	20.842709	23.122267	8.483228	-291161.3	300341.22	181185.4	325828.62
H	1.0	1.1243849	17.872873	10.82385	-477734.94	-319558.03	-366069.16	-1.6637741e6
H	1.0	15.7652025	2.5584104	8.7042885	73770.336	325977.9	222233.25	1.0071726e9
H	1.0	18.423458	2.3682172	1.453289	176760.8	542105.9	-77596.35	-1.2152134e10
H	1.0	4.8346186	10.839987	4.1589327	-269997.28	-132637.48	236072.84	6.193294e8
H	1.0	8.04526	6.9933753	14.3125105	206996.55	-31499.393	-31254.062	514046.1
H	1.0	0.092415676	19.473503	16.844843	-333488.9	-72819.6	-7780.491	-1.4835142e9
H	1.0	1.2422175	2.7698436	16.350674	-343531.8	-207051.98	-139218.25	1.3653225e9
H	1.0	18.316574	0.67773706	21.777609	-95621.086	375170.78	89356.98	-1.3075652e9
H	1.0	14.406865	11.180592	16.190704	-314677.34	-844356.94	-91715.06	-1.59965e6
H	1.0	19.4227	1.50044	18.662394	335592.25	1714.4736	-285511.4	-1.5464927e9
H	1.0	12.425016	17.913958	19.356981	-222299.38	57824.496	39797.285	-1.0848718e6
H	1.0	19.601065	10.028253	19.628399	245060.89	-149449.19	-431746.78	2.150597e9
H	1.0	22.430391	5.8053346	0.032846484	4614.485	142483.11	249038.47	5.468088e9
H	1.0	16.302912	21.576807	14.945146	-236488.77	286299.9	-302341.38	-658372.06
H	1.0	9.769074	17.178568	13.130354	-134845.8	90201.56	-91970.55	377906.8
H	1.0	1.2359492	1.0400054	20.520115	516704.28	-523656.6	-235259.44	-1.5922312e6
H	1.0	10.461642	1.6005	10.532041	-460832.78	-54578.977	133773.25	-460965.7
H	1.0	20.085836	1.9660254	21.18043	589262.25	-470055.0	-227040.05	-5.8888827e9
H	1.0	15.030496	10.796732	5.9977074	121596.1	16253.491	61887.945	419833.97
H	1.0	11.977556	20.000647	20.413195	297978.53	-334749.03	428703.0	-3.1262351e9
H	1.0	4.7698507	9.577435	11.3805	-73045.16	-198586.39	182758.14	4.485664e9
H	1.0	9.929647	17.772633	8.750397	77850.36	591416.0	-233721.39	-3.1736548e9
H	1.0	12.977162	2.9654279	8.078369	-282817.75	-277906.78	59620.45	-145356.88
H	1.0	14.107028	11.266713	2.9874077	-36400.223	-610776.75	-152751.78	280940.3
H	1.0	6.4698505	21.578901	7.491902	-483547.8	-70979.23	37929.914	-32287.012
H	1.0	10.464085	8.836857	6.7457657	19482.373	-327397.66	19558.018	-2.2239593e9
H	1.0	7.6988244	18.14117	23.846756	-139000.06	317796.88	241171.28	-297468.16
H	1.0	15.408812	24.060122	19.04836	-165084.3	-361767.0	-169222.16	-2.2216456e9
H	1.0	7.5680475	15.773936	14.439851	-187700.17	-217930.5	-68470.414	-9.8896045e8
H	1.0	18.385492	13.318376	21.97008	-583782.6	187732.12	-463230.53	-8.802115e9
H	1.0	7.591238	5.7693048	0.91795117	390537.97	295451.7	363546.66	205166.19
H	1.0	4.8934517	11.600074	9.033188	-199844.61	392629.28	-493250.78	-2.8416412e9
H	1.0	2.4844718	5.8072443	22.699236	406614.47	-351058.25	353574.8	-336936.44
H	1.0	7.580998	1.947826	13.641547	12701.418	-289478.5	173845.88	-524834.94
H	1.0	19.992393	22.290924	17.180178	-176314.7	154103.22	-40352.4	-2.0922014e8
H	1.0	21.327955	12.306603	19.732313	-7793.409	-257617.22	-228194.67	865680.56
H	1.0	12.095935	3.6350508	2.943294	-14538.445	-228964.84	-348659.25	-3.4242335e9
H	1.0	2.1623194	6.1650434	5.5912647	-343548.75	-254996.88	-111477.875	2.0907105e9
H	1.0	8.001972	3.5274053	16.116396	150772.55	-704798.6	-179152.06	-6.3211653e9
H	1.0	5.025088	1.9188052	14.951654	-274854.66	-620946.25	-143208.44	-1.1029796e6
H	1.0	19.342272	6.121009	4.0510807	68849.6	-178789.3	-41513.94	2.9681027e9
H	1.0	13.463388	8.61832	11.3985815	57111.668	-384007.4	-382118.5	-65358.98
H	1.0	17.034975	3.5521305	16.551836	-339054.12	285355.9	279257.34	146978.17
H	1.0	13.573717	16.268797	19.079842	128262.73	-16273.381	16080.809	21205.89
H	1.0	16.293585	15.901011	7.490404	-111113.2	390264.5	88103.62	-1.8897322e6
H	1.0	10.621708	10.86992	18.885883	205495.72	-240712.52	337030.44	946550.06
H	1.0	4.776154	19.601452	1.6754453	236674.14	309651.47	-169864.89	485367.66
H	1.0	8.415913	16.60056	18.532295	93942.88	281820.06	-62825.61	299734.53
H	1.0	6.1832237	0.6488381	4.618256	-270802.22	-7643.775	-306282.6	2.2903964e9
H	1.0	14.095011	1.5748729	21.352745	-280980.4	-406794.5	-142414.92	-439733.56
H	1.0	2.9907596	19.067734	15.977084	61797.01	-61713.113	282073.03	1.0858071e9
H	1.0	20.852041	5.102388	11.501459	85711.07	249144.0	223918.52	-4.0397456e8
H	1.0	0.18708783	6.0762997	8.954696	261384.48	-443995.88	-148019.6	3.4211502e9
H	1.0	6.3809733	8.532464	3.183152	321810.94	228977.73	121699.58	2.3321984e9
H	1.0	19.636923	7.8772516	17.97778	-304404.78	-117963.26	-612656.5	-824434.5
H	1.0	0.46472797	0.7941334	5.6821423	93684.21	-544036.9	-184477.5	-1.4244787e9
H	1.0	2.638695	12.930569	6.966952	196948.98	-173646.06	55208.28	450678.44
H	1.0	20.541573	12.283154	1.1880349	2082.873	-335367.47	363100.22	1.0990977e9
H	1.0	6.2616706	20.608313	10.436279	105997.08	-538546.8	201662.58	-5.7686835e9
H	1.0	10.806185	16.482784	19.271301	339330.62	-110810.25	-126393.766	1.0516318e6
H	1.0	12.2462	14.403822	9.375974	176521.7	234009.8	-507245.66	-656224.06
H	1.0	22.871973	19.083038	2.5745156	-330942.34	283074.5	-65986.734	-5.06718e9
H	1.0	16.524141	5.4303246	8.1973505	-56344.055	29909.75	149541.47	4.164537e9
H	1.0	16.355795	23.466824	11.164983	-277866.4	138746.67	-336668.47	1.9369364e9
H	1.0	22.900581	3.0082448	15.574574	-377497.8	-285233.78	98642.26	-1.5277761e9
H	1.0	9.307264	0.5969023	7.830155	147161.31	133785.92	136250.08	3.7768113e9
H	1.0	8.363247	11.72555	2.6524205	-372724.66	-145152.55	472575.12	-3.453054e9
H	1.0	11.173112	0.85728186	1.2014301	242998.12	96737.805	105961.77	-56471.72
H	1.0	14.327873	23.249409	2.7394304	432207.78	-28313.072	425495.9	-300326.5
H	1.0	0.9977198	14.240266	23.829578	-210778.47	104196.24	419767.34	-2.0200874e8
H	1.0	10.322366	11.748306	20.76676	54673.797	356325.47	-491106.2	-2.5860878e6
H	1.0	10.606172	15.007283	23.82687	-507142.7	-26058.822	193721.0	-1.5701729e6
H	1.0	18.082428	21.276524	6.126444	-537321.44	156794.25	-103899.664	-1.0605228e6
H	1.0	21.90861	17.36351	20.492466	-155653.03	-100973.9	259863.47	446001.72
H	1.0	11.318728	3.225224	1.0991151	284630.97	41067.676	16724.16	161593.92
H	1.0	22.964985	13.962293	11.772581	-117866.195	641809.9	-93212.086	-2.5071327e9
H	1.0	6.730264	17.21682	11.479437	95835.92	-25971.855	-20205.443	-145792.89
H	1.0	5.228087	20.942364	5.6503468	246376.86	-220683.58	-20319.895	346295.5
H	1.0	16.908846	10.958686	14.557102	-363902.97	283583.28	-311596.12	-1.6426726e9
H	1.0	13.001499	16.887691	17.184511	509265.4	-249639.95	14507.284	610294.2
H	1.0	11.179844	16.628857	10.036274	23124.828	-341402.75	183340.75	540979.94
H	1.0	22.404505	1.963307	9.93395	-211390.02	219712.72	-600320.7	-3.088308e9
H	1.0	11.858257	16.072346	14.027621	181522.22	-290054.62	-102779.52	1.1785405e10
H	1.0	13.161858	7.3583436	19.089495	-312330.47	-235728.9	-275380.9	3.2233203e9
H	1.0	6.838064	2.0063643	6.669894	387441.62	189708.27	-240423.77	36745.395
H	1.0	15.947117	20.875147	10.114844	-656545.2	490866.25	624037.44	-9.264005e9
H	1.0	3.7464411	17.095978	0.10069032	252829.5	-103819.08	65108.336	4.443382e9
H	1.0	20.73521	7.236717	4.9969206	6313.6934	166116.67	338667.0	-377899.88
H	1.0	18.779173	1.6716282	11.355461	274480.8	-465774.7	-292059.53	-294293.4
H	1.0	4.1261396	4.806429	7.081382	179595.83	-201966.36	-363669.5	-1.5432219e9
H	1.0	14.850675	16.466173	13.889111	-290555.03	-216538.86	321745.0	-1.2041711e6
H	1.0	9.703154	2.1245184	0.011204597	-122636.68	-93824.06	-181805.8	2.0315411e9
H	1.0	19.45056	21.219229	18.953703	775807.0	356070.34	-178245.16	-1.6647306e6
H	1.0	14.482459	10.843155	22.578234	-712537.8	-417228.56	2393.582	-792103.2
H	1.0	17.47496	11.320264	11.652042	665189.06	-14909.824	28184.375	-1.6792438e9
H	1.0	0.57279235	5.0322766	10.868201	457916.25	-1743.3209	150118.45	-101094.016
H	1.0	11.615304	5.2176466	18.69329	-4931.3765	237479.4	420759.22	596575.9
H	1.0	13.741074	21.998917	23.458597	-77106.55	111155.78	-191219.48	6.5016125e9
H	1.0	0.18159056	7.7863216	15.8300495	-322980.38	32769.645	238251.53	4.3086403e9
H	1.0	23.907253	19.53306	5.2586904	-250042.0	-219937.19	-426739.2	3.1150428e9
H	1.0	7.4997816	13.992598	12.596714	26527.973	420106.94	-52095.555	-2.697084e9
H	1.0	6.206005	16.867733	18.958378	93824.445	636762.7	216754.05	1.4658932e9
H	1.0	23.751844	10.354232	5.623648	-3161.7468	-413734.38	-109374.6	1.4127406e10
H	1.0	16.598822	17.509003	3.961377	-457902.88	282758.7	-183586.75	-8.352054e8
H	1.0	17.27001	17.31283	11.074648	172312.75	-176500.72	299682.7	4.6815985e9
H	1.0	21.907358	23.308897	4.5731416	-286842.4	142580.77	-84128.79	1.0636782e10
H	1.0	9.309226	14.74544	19.000622	567929.0	57591.004	-365569.62	750354.94
H	1.0	8.212457	3.9457126	0.698385	-721498.56	5980.5127	-538011.7	-1.0809293e10
H	1.0	3.587151	22.447422	0.21079773	590588.7	-51262.996	-710971.5	-902636.3
H	1.0	14.762287	21.958765	16.161325	-49619.895	341043.47	-516965.4	-2.9334415e9
H	1.0	10.13515	10.450337	8.745435	235578.14	-353439.75	408559.47	-565830.6
H	1.0	9.761508	9.274646	17.383642	-411710.9	-310458.44	530072.7	-889844.44
H	1.0	23.197826	20.874979	18.719593	493792.56	-11323.626	-85091.086	2.6976271e9
H	1.0	21.28735	3.588753	3.8999033	4037.2383	-393416.6	-217238.95	-7.0503286e9
H	1.0	0.31259093	7.0793653	2.5515757	286976.6	199937.86	76151.836	-2.481834e9
H	1.0	14.182787	11.500108	14.216276	138322.53	128642.19	-76548.12	-4.8140022e8
H	1.0	5.2882366	4.0018983	2.1622562	105666.08	-79115.41	162684.17	-3.7817203e9
H	1.0	8.980748	23.930225	10.224601	416827.28	146852.83	-307606.88	-522786.0
H	1.0	7.441241	7.942779	20.132362	300239.72	226031.5	-179624.02	-4.668446e8
H	1.0	16.163832	0.4431627	2.8476179	-411942.25	408561.78	-430003.53	-1.142283e6
H	1.0	22.968815	6.9339824	12.136937	-417919.72	108190.91	167262.7	-3.369239e9
H	1.0	7.2175756	19.087618	11.227373	288010.75	-85008.016	-8753.438	3.06725e9
H	1.0	22.771845	23.411444	18.739706	479521.6	-187908.89	-167456.5	-4.190703e8
H	1.0	16.919556	15.686346	12.101553	363893.2	198351.58	255962.19	-3.412143e9
H	1.0	6.2752247	6.365995	10.2526455	-473630.84	145320.66	-322290.9	-3.2050604e9
H	1.0	23.591118	12.045971	16.72901	283344.7	174300.12	299762.06	1.3523111e10
H	1.0	2.2088375	6.9098945	18.664194	33532.258	-267016.78	-527439.4	5.3937485e8
H	1.0	16.118567	15.714693	22.251493	259944.11	103900.61	-154125.56	419359.34
H	1.0	4.2437797	15.63523	17.933125	-529496.1	296364.97	154598.81	49297.78
H	1.0	10.384795	6.5255504	4.9463396	53494.82	32558.762	172611.25	135194.94
H	1.0	5.1308722	22.187782	1.9339117	-145153.89	-10436.843	-150562.39	2.4554726e9
H	1.0	13.933794	20.478792	13.605155	-205047.84	-23999.408	99877.87	977557.94
H	1.0	15.352689	5.327281	0.47818303	504714.06	-405490.6	-131185.23	-1.4341894e10
H	1.0	15.201511	1.8620889	6.3007107	-143133.03	84088.54	329781.97	-2.9500432e8
H	1.0	16.05322	0.7440182	9.503173	-425654.78	310934.62	282861.53	-1.3473218e6
H	1.0	16.519354	8.035875	21.692314	266940.53	-110287.17	203451.7	-4.630433e9
H	1.0	22.230646	22.835081	6.702624	-323271.03	-99018.234	34499.957	-1.5579039e6
H	1.0	12.203557	5.60332	8.871768	-137824.27	-211425.33	493432.12	-609906.56
H	1.0	11.902203	6.112201	21.31649	132926.66	10599.177	-381667.9	-781709.44
H	1.0	19.307816	9.625266	23.274601	418369.34	330267.7	-6182.5	-670822.3
H	1.0	10.268261	18.437157	21.288668	-3207.6218	387373.06	-273962.53	-7.3515514e8
H	1.0	19.400644	19.068933	1.4334321	-38819.844	106514.81	247026.17	-2.086664e6
H	1.0	19.100767	13.712244	19.294376	566537.75	332801.44	-545980.06	-425039.22
H	1.0	15.090196	8.317362	16.773706	15848.823	223695.73	-327422.3	-140232.17
H	1.0	16.160923	5.143145	13.483945	176022.94	-77435.96	211419.27	5.0195242e8
H	1.0	12.24848	22.29091	14.927732	436955.97	-254937.16	-39715.36	-515461.06
H	1.0	17.547787	8.243707	4.213684	306622.88	89207.85	-245179.67	-417324.16
H	1.0	18.913797	21.882835	1.9593285	-480833.16	-290894.3	-449073.66	-3.4134106e9
H	1.0	0.73399657	15.87691	6.127083	150658.8	-273729.2	-185035.03	124787.15
H	1.0	12.366319	9.775564	8.359501	637323.25	304378.3	148307.48	-728017.1
H	1.0	13.50433	7.301467	3.6290963	-160207.44	-269188.25	-450441.75	-654176.2
H	1.0	7.9168725	11.370385	21.07786	88233.73	10637.161	68359.95	-4.372503e9
H	1.0	5.899075	16.0493	16.780622	-6865.9644	-305115.78	155079.23	-1.3272884e9
H	1.0	9.881705	18.48178	23.296234	-263778.4	71207.19	158877.89	-1.3872777e9
H	1.0	23.06803	9.609456	15.456724	-608630.94	118086.61	67313.23	-1.5799382e6
H	1.0	7.234281	0.3157605	7.9230924	139587.69	-112431.08	224271.4	347707.7
H	1.0	20.44482	0.4437276	3.4722686	382550.9	229037.45	-76110.83	-1.1252517e9
H	1.0	19.75395	18.484121	21.821066	-14942.334	-333888.78	42899.945	-575063.06
H	1.0	8.37214	1.6820235	2.429781	435952.03	111084.836	-210287.39	-457619.8
H	1.0	14.238307	3.2820883	16.298553	509419.56	367241.94	-186250.33	-1.7539616e9
H	1.0	4.9492884	10.130534	14.014756	-392477.28	-441478.5	158198.56	-678374.94
H	1.0	8.751211	13.96785	0.831034	337210.8	199254.9	-343090.22	-2.6813225e9
H	1.0	10.437166	7.9311013	3.3373823	89249.27	56525.684	-230059.53	1.1709942e9
H	1.0	17.867062	4.767479	0.4762711	-45117.38	59701.152	-3016.2776	3.8597594e9
H	1.0	11.235859	21.73783	1.6746846	415423.22	99714.35	551964.1	-6.318983e9
H	1.0	12.435584	14.726108	15.471616	-23603.23	203868.23	-1701.4308	2.2891564e9
H	1.0	7.156766	4.6169643	18.672846	-48231.566	-87838.21	481467.25	-4.457245e7
H	1.0	6.964258	9.519937	15.407038	-188020.52	334965.75	240437.02	-3.9433917e9
H	1.0	16.307001	13.449346	20.824339	75380.26	65516.906	95021.375	3.2970102e9
H	1.0	13.349964	5.5006123	2.1555517	-343535.44	-85180.9	106004.77	-1.5507681e9
H	1.0	10.851178	21.95042	23.842129	459078.0	-198066.73	47419.34	-1.862824e9
H	1.0	14.690773	14.10513	0.13335457	115525.53	62811.992	125081.33	27137.418
H	1.0	5.66661	19.641813	4.136031	225075.1	208197.66	82410.445	806602.9
H	1.0	9.314637	5.3000336	2.1548123	-204442.6	-197658.42	46336.332	5.4481786e8
H	1.0	23.470924	21.95228	14.641202	-477282.53	-628361.2	226437.97	-6.033366e9
H	1.0	1.7102236	16.43147	2.3636985	11393.72	120554.34	214844.56	534970.8
H	1.0	19.377686	11.735986	7.3641453	112292.48	419440.28	-185670.77	-1.2561061e9
H	1.0	15.0348835	16.327515	23.790165	709174.06	344582.1	94373.13	-1.4053114e6
H	1.0	9.432247	13.597937	3.9945595	-22542.174	55098.72	-180966.56	1.8191704e6
H	1.0	2.8887215	18.217318	21.485626	210074.42	-266707.3	-438552.44	1.9031325e9
H	1.0	19.587284	6.7582717	12.470748	-241933.66	-95169.7	482067.62	-3.5469473e9
H	1.0	11.397373	16.992527	5.723325	85812.32	-549881.4	-143943.44	-670977.8
H	1.0	19.857563	23.633627	6.035642	-509713.88	-4581.562	220580.94	-1.2760188e6
H	1.0	8.29163	16.082455	20.359535	-21311.941	-179876.42	-434274.16	-1.5967539e10
H	1.0	16.466663	6.5711813	23.389948	-45527.492	23733.69	113738.586	435545.4
H	1.0	8.737153	11.378529	5.3854465	309029.28	308472.4	40888.31	1.05687763e9
H	1.0	6.5731425	2.7046618	17.59237	-203579.27	116127.87	208350.84	3.7777032e9
H	1.0	4.451063	6.8791013	6.52017	172180.72	-83469.67	-207776.66	471560.25
H	1.0	15.389611	7.3761168	14.54024	128019.91	587902.06	276153.94	-1.4529979e9
H	1.0	1.0679611	14.072289	12.09249	-112097.18	-123915.945	-184828.56	134135.94
H	1.0	21.364197	10.96926	23.300627	-78088.305	-49034.266	-570978.44	302154.78
H	1.0	14.112755	1.3926575	10.988458	33585.438	-74549.88	454083.2	-5.05838e7
H	1.0	4.5663157	18.941341	8.033462	-46773.133	344074.3	650590.5	-938256.56
H	1.0	9.247519	16.025633	9.822466	-264570.34	-21832.623	-501352.2	-1.27124376e8
H	1.0	2.2919154	20.827326	23.29785	346159.62	-103450.28	162486.72	-50644.594
H	1.0	8.160139	9.594956	3.0479388	-34954.516	-26270.207	-390644.6	1.3085966e6
H	1.0	22.678934	15.273474	23.930084	43200.617	20340.494	-258441.5	8.389687e8
H	1.0	18.654396	0.9466918	5.1586204	82635.875	-8648.375	263803.78	1.4833458e9
H	1.0	12.450935	8.811535	1.3246614	-995.63776	45031.605	-588417.1	-981381.6
H	1.0	2.7597387	2.7661288	9.602002	-175663.6	-282515.9	-193117.92	7.880393e9
H	1.0	3.8280888	18.072483	11.469447	-18964.639	-12246.364	-84856.73	-2.8780076e9
H	1.0	8.629996	19.472849	7.0346494	567249.44	-267893.84	72411.54	1.18731816e8
H	1.0	18.714247	12.808449	12.620195	-247905.98	-483746.8	-153106.2	-4.7283917e9
H	1.0	18.892658	17.829191	5.060173	-356908.84	-256012.62	-484261.1	-718469.8
H	1.0	7.21548	20.916527	12.76096	534500.6	-31328.37	-353806.72	-833809.3
H	1.0	3.823625	8.129414	21.473576	70294.5	-196066.62	-125927.64	5.701755e8
H	1.0	10.086901	5.132892	8.647411	-22636.818	-218532.7	243958.1	4.982442e8
H	1.0	20.182981	9.224298	3.8442974	475193.97	-148801.52	-214771.45	-5.5401487e9
H	1.0	3.4878945	14.139883	14.089154	109225.48	32773.91	72925.445	1.4548209e9
H	1.0	21.196907	1.0883421	6.1696324	178922.22	-229725.33	244636.81	591546.2
H	1.0	5.937827	5.130333	21.781048	-22831.934	-154639.31	74018.35	1.0689854e6
H	1.0	19.999477	3.7766643	12.906595	326721.5	463602.22	-85783.23	-3.378464e9
H	1.0	0.60003334	10.772479	14.121008	-94166.96	-94235.49	283396.22	1.3440774e6
H	1.0	20.70913	11.78808	3.7999623	176328.05	-353356.97	84641.81	178135.34
H	1.0	9.724456	1.1717378	14.583271	163956.27	-245090.64	209413.25	5.882187e8
H	1.0	12.86906	22.545124	18.938128	441598.88	-157539.62	-227868.19	-2.7907182e9
H	1.0	6.743534	10.558629	6.030439	-132124.3	-323788.34	-308810.88	2.0541399e9
H	1.0	2.1997697	10.827899	7.0312686	105083.734	-213228.38	216262.06	-3.2388252e6
H	1.0	4.9549522	22.545498	14.242574	64348.42	-31332.459	-286518.56	560255.9
H	1.0	1.7458959	4.0702567	19.116497	-285510.12	-452079.1	-11665.737	-966068.0
H	1.0	4.524338	5.545526	3.7909853	-293736.1	256917.89	98243.34	4.3537715e9
H	1.0	3.268228	19.079725	0.11644407	168479.1	421505.4	417484.8	-4.743503e9
H	1.0	8.056843	13.134907	8.103238	-141048.88	-355813.47	547381.3	-1.5632412e6
H	1.0	16.495758	14.874628	15.2967415	-176288.56	101719.81	-234224.94	7.3157805e8
H	1.0	20.39201	5.111911	8.60351	391806.47	28243.586	-193709.16	1.4538492e6
H	1.0	23.277273	18.238956	23.802774	478646.94	482485.16	-53675.54	-1.024366e6
H	1.0	23.330576	8.379409	21.8033	-79267.56	154781.19	-672306.06	-921279.4
H	1.0	9.854753	6.3934574	17.383053	150072.92	83074.75	-7520.226	1.2190281e9
H	1.0	5.054519	12.838125	2.2612042	-250050.1	-43996.56	-288288.72	-33248.406
H	1.0	22.643894	17.552706	5.088503	-238867.89	-501361.78	-26044.506	-1.1576818e6
H	1.0	18.343685	16.2506	7.324004	601203.3	-443347.25	329902.53	16245.11
H	1.0	20.935066	8.959498	1.0794373	-124562.61	-216297.38	302799.2	317484.94
H	1.0	4.8962636	3.3036187	22.102589	-393273.9	-137700.5	-162182.66	-2.046748e9
H	1.0	3.069293	9.0201	18.108004	226089.27	100811.43	58270.164	-119123.53
H	1.0	2.044427	11.822289	23.518951	849577.75	303041.4	129336.95	-1.7256022e6
H	1.0	3.1569042	0.6747525	5.6410804	-135032.36	75221.54	-137288.28	1.6162282e6
H	1.0	7.354988	14.652267	4.908994	-255733.73	-257546.53	441067.4	-477181.6
H	1.0	22.407595	16.96663	1.8240536	549159.75	431780.94	-229374.19	1.5387895e9
H	1.0	1.9966383	11.908228	13.389393	42276.906	225324.4	-487391.88	-1.5820798e6
H	1.0	1.3945909	23.074797	18.665407	-104925.945	-263212.3	-279525.25	-673536.5
H	1.0	21.295622	11.661093	11.703891	-69144.76	315160.03	-121124.17	782674.6
H	1.0	18.791119	8.219828	2.0666618	-255905.16	221761.44	248941.17	654072.1
H	1.0	14.060783	20.368595	8.719277	-66919.88	-173190.77	-346159.44	-1.6504838e6
H	1.0	7.5463877	11.359043	19.153627	85298.27	-519449.28	162394.33	-1.3755785e6
H	1.0	10.128415	6.5272527	0.6572132	-191001.89	90534.5	21253.137	1.4627184e8
H	1.0	23.131641	4.2493067	20.66531	-172478.03	-396495.7	542.4192	-5.4017623e9
H	1.0	18.195673	11.541414	20.000319	-269809.53	-248329.95	250285.69	-2.0990968e9
H	1.0	2.4783776	20.318827	10.639027	209598.98	72083.09	-396047.34	122627.31
H	1.0	4.8436956	23.613707	21.868313	-278672.78	-308745.88	-166071.19	-1.8798885e9
H	1.0	18.577072	21.272924	8.823352	-150865.36	96517.12	-67938.4	400425.72
H	1.0	6.692286	18.882359	18.93027	-254389.31	-465649.06	456410.88	-1.6768884e6
H	1.0	2.2546296	15.799048	16.498781	-350339.5	-272057.94	-161851.16	-521862.03
H	1.0	14.256626	22.31687	10.691687	123700.2	79976.37	139829.61	4.642022e8
H	1.0	15.679473	17.924192	21.370642	-27336.695	166178.47	76052.75	404784.25
H	1.0	10.446316	10.143487	5.1032853	33970.324	110974.484	143435.89	-5.5478125e8
H	1.0	23.27705	8.28317	0.91520655	571681.6	193233.95	-246906.02	-1.0060436e6
H	1.0	3.345923	19.24887	13.023214	-206764.31	-74627.75	-119765.22	227699.5
H	1.0	6.482412	5.4758086	13.221983	110811.43	-206809.4	-245614.22	-2.3869692e6
H	1.0	14.25088	0.351318	0.09955488	-559400.0	89406.695	-41241.26	-1.5555997e9
H	1.0	18.93876	6.2763505	21.219824	-143980.17	-138492.7	-80889.04	6.476142e8
H	1.0	19.96811	2.5957224	5.3185225	36131.57	-288019.16	-536407.25	-3.074621e8
H	1.0	12.586495	21.893522	12.38874	-469312.6	257815.72	-487938.4	-4.291661e9
H	1.0	20.698189	3.4022124	23.019669	152329.45	336199.2	-132704.12	1.2051735e9
H	1.0	17.439024	22.701736	9.717729	128497.07	-243120.72	267180.16	-158661.55
H	1.0	23.303043	8.309699	13.52622	490177.0	212856.58	-63291.492	729214.5
H	1.0	2.5109715	0.67265546	3.5948172	-273385.7	-407633.84	173173.77	3.952532e9
H	1.0	5.9257545	3.7362945	6.8933964	-376256.0	84237.66	-507600.9	-9.72048e9
1000
Lattice="24.079964 24.079964 24.079964 0.0 0.0 0.0 0.0 0.0 0.0" Properties="Particle Type:S:1:Radius:R:1:Position:R:3:Velocity:R:3:Entropy:R:1" 
He	1.0	6.4122868	2.3340807	3.0156615	-8339.516	-2584.0627	1860.0771	1.1133712e6
He	1.0	2.356526	16.128439	10.333625	1477.6829	-3447.2393	629.4909	513765.25
He	1.0	2.301512	3.420486	7.1827707	958.34845	-1426.2438	2800.1455	191475.45
He	1.0	1.04794	18.870579	19.531889	845.68884	-9304.608	-3843.8105	-207.91174
He	1.0	20.832787	10.585947	21.344255	-13647.516	-25828.086	-155179.67	2.2133135e9
He	1.0	4.684681	12.514194	21.776474	8055.412	-14818.74	21795.723	1.2685896e9
He	1.0	2.224354	8.364732	14.227544	8439.515	-3915.0718	-6571.6895	14411.294
He	1.0	16.56096	23.762793	7.3209605	6686.6323	-513.06665	5327.155	124.91767
He	1.0	7.447731	21.36226	22.092464	-3651.4656	7347.3984	-4239.0947	-192.62926
He	1.0	23.079302	1.2212038	16.5216	643.10864	2287.4866	9581.393	6.431847e7
He	1.0	6.0256634	16.55584	6.8839664	3700.6648	3103.0679	843.95935	4.5987375e6
He	1.0	18.441925	22.235535	11.4076605	47537.223	-33404.938	42108.863	287594.6
He	1.0	16.6027	6.294871	11.752489	-4632.23	-1719.5374	952.531	2196.0012
He	1.0	15.583258	5.8500915	10.066794	4491.824	-794.7185	1208.8749	2.9197315e9
He	1.0	2.8973243	14.2011	10.999984	12574.994	7021.1255	-20811.229	1914.848
He	1.0	1.9032024	11.312753	1.9090453	4160.122	-1248.2628	-1905.1409	1.04827025e6
He	1.0	8.293729	5.176828	9.628297	1008.40643	-4966.3228	2053.0789	417.2042
He	1.0	11.14402	2.7064195	21.428848	9113.388	1265.1066	2005.3684	495550.25
He	1.0	23.277548	16.994875	15.782137	3827.5886	545.4826	-5246.5444	41901.65
He	1.0	24.03481	10.350867	11.917089	521.3126	893.31116	-1363.1013	125592.086
He	1.0	14.256242	4.4466987	9.341727	-63124.04	22129.697	-35311.004	613499.94
He	1.0	9.052363	20.448746	3.101379	-422.5306	4335.9663	-68.87336	1.0809389e6
He	1.0	7.376487	20.263273	5.076739	415.20264	-426.49927	-518.12994	303705.28
He	1.0	17.901716	14.983463	20.555752	-4733.1333	5795.3164	5175.004	-7267.8833
He	1.0	8.533092	3.387682	11.91919	3910.6401	1092.137	1135.2711	-15.634672
He	1.0	0.5180536	9.586953	3.207242	4668.0444	4610.1333	194.1933	1.1013136e6
He	1.0	8.686912	20.430067	0.5779329	71.95201	-5961.032	-3425.5007	-116890.43
He	1.0	18.680586	17.49797	0.44118154	-152604.45	11120.747	44360.242	5.316909e9
He	1.0	22.230576	22.98627	16.044886	2179.133	3381.2773	4140.103	1.7482106e9
He	1.0	20.421173	13.550636	6.8867674	7572.487	-3052.2727	-1408.9083	254.85858
He	1.0	20.629951	7.684493	10.937726	2995.986	702.55005	7280.9644	-212686.58
He	1.0	21.344486	7.2687793	18.820889	4249.8857	4493.0127	-3046.3113	9.2562714e8
He	1.0	17.289598	13.618312	10.987594	7724.731	-5505.634	4588.261	-90.43639
He	1.0	3.8362677	11.203621	1.4101974	-2140.0498	11157.422	4772.3916	-241398.56
He	1.0	15.590204	18.633701	10.015928	3419.7478	5393.1216	631.2188	154861.56
He	1.0	12.261636	7.8729186	14.600726	-1484.1307	-2311.241	-5379.4897	14994.015
He	1.0	9.25775	16.143631	4.441145	36396.68	-26203.484	-800.18414	2.9931118e9
He	1.0	2.4168065	22.356827	3.1280928	-7690.4995	19056.52	14282.774	124860.93
He	1.0	4.8914065	18.32451	22.710625	-120.9854	2417.8691	-7618.6245	129.53406
He	1.0	14.165339	4.854668	14.098052	-925.91425	-712.19006	469.64398	6.9801257e9
He	1.0	15.8139515	4.1510787	22.19829	-733.50385	-2770.8562	8288.727	-5680.7783
He	1.0	15.510512	21.642778	18.591225	-2984.68	-1803.2793	-12565.41	35359.8
He	1.0	18.556269	21.14996	15.000382	518.5869	-4794.781	2018.1357	2.4939837
He	1.0	11.576321	7.712397	8.134887	-1421.5927	3384.224	-3613.5222	1.436417e7
He	1.0	13.119154	23.558136	22.242529	-10960.905	10531.522	-7153.5405	340308.12
He	1.0	15.697913	18.151634	5.779557	2694.652	1339.6611	314.04684	289.93405
He	1.0	6.6852293	23.63948	17.012697	450.45798	1819.3132	-767.7176	329642.62
He	1.0	8.610727	22.619444	11.767994	-4979.2456	1182.5508	-3655.4473	2.5767327e9
He	1.0	21.918074	19.055162	7.6804833	-4416.05	-2157.258	2130.9194	39384.86
He	1.0	14.553738	6.2376585	22.842299	-1848.8053	-2965.8628	-1221.8336	58021.09
He	1.0	17.336538	8.629006	17.896378	3256.4753	3667.7075	-5185.4487	141432.9
He	1.0	11.705129	15.955118	3.753524	-2544.4292	1096.5488	3326.6694	-69063.85
He	1.0	12.150949	19.920177	8.47427	49050.926	36882.664	39899.9	5.0210616e9
He	1.0	4.3157573	1.9370936	3.713935	-4110.031	-1587.2937	-173.37183	304.5244
He	1.0	6.4495196	7.7030993	17.9067	-3662.2058	7161.368	5438.0176	197998.45
He	1.0	5.986942	2.9512641	0.6219401	7807.279	1792.4633	-6848.1465	4.4552e9
He	1.0	14.904898	4.8371186	6.2219014	-4651.9663	-2390.7224	1257.6893	23.463684
He	1.0	15.509523	21.882456	12.617447	-2591.1902	2731.0364	1967.239	1.7801976e8
He	1.0	18.071863	5.1727486	9.641617	-7864.934	-2141.1528	3301.1436	616552.0
He	1.0	23.596487	18.75881	21.755455	-6398.5044	2583.3335	885.9143	-470297.88
He	1.0	13.370489	19.271885	4.3180084	3116.3872	-221.97865	-3165.6555	21507.73
He	1.0	3.19996	21.062874	1.8310907	-870.4065	-13845.823	-17064.164	3.5779812e9
He	1.0	21.952095	0.0021639566	1.8396255	-10318.448	-543.5147	972.3354	-840548.6
He	1.0	12.09035	10.221343	16.402927	10142.328	-6324.616	2154.9604	37615.168
He	1.0	17.613123	22.989014	16.317797	-44.80018	-440.189	-2192.1929	286.81937
He	1.0	5.5370297	9.746061	23.923622	-3488.7278	-4457.073	-3568.5095	14650.606
He	1.0	18.412968	9.963122	3.4993343	-22988.805	8085.7524	-7049.854	1.3493348e6
He	1.0	22.430351	14.285484	17.394333	-262.0473	1417.0908	2801.964	124.29404
He	1.0	3.2725272	16.79506	6.001382	-5265.0015	5205.6577	2269.6584	-57.467037
He	1.0	10.807393	17.994122	3.2996664	-6817.522	-2971.1567	1528.6958	-98.55408
He	1.0	16.801647	20.387838	0.7597294	-4583.681	8437.186	-1576.3892	188.96918
He	1.0	4.1858544	21.960356	9.502866	2253.5732	-4289.7837	2128.1768	-26.013483
He	1.0	22.585098	6.197618	2.2035487	4052.3772	-2493.0513	2035.4126	32373.834
He	1.0	22.726458	5.0329633	6.912934	-1164.819	7915.0884	-838.3288	111855.48
He	1.0	6.6248345	7.987425	8.122338	-1398.7775	-3247.7756	-1327.4684	1.1806671e6
He	1.0	13.97232	17.846148	11.395712	3809.6648	-3290.1526	-264.98502	8.572353e6
He	1.0	2.348702	19.481424	6.93727	5102.4243	-2731.4058	-2459.1316	-53.164764
He	1.0	2.620052	23.537403	16.99426	53730.203	34932.97	-100953.41	626897.5
He	1.0	23.878471	21.025692	10.518155	-4769.8354	-10179.732	3489.8328	-1.5858134e6
He	1.0	4.5685983	24.078737	10.696978	-4615.662	1983.5626	840.8129	-34.10629
He	1.0	9.802043	5.189462	12.69489	487.79968	-2932.0708	2354.8328	1096.0396
He	1.0	23.066519	1.5777911	21.371996	-2566.6187	2467.3333	-6628.2573	-469690.9
He	1.0	13.568049	21.250319	6.9861546	752.73236	930.08624	-4963.6953	47624.844
He	1.0	2.2452612	3.0751414	21.088514	755.0709	-7796.0605	-1930.6278	-451443.66
He	1.0	17.615488	19.02718	21.567453	10273.555	3657.6797	-439.0727	-180.85779
He	1.0	4.3950586	8.659735	8.837543	-1607.778	-238.7115	3401.6948	87.45383
He	1.0	16.7691	23.010159	1.4386423	-3065.3267	3443.1187	4513.101	-202065.22
He	1.0	9.916204	4.2529597	17.650417	-4905.013	4097.599	5256.33	124827.125
He	1.0	18.666702	7.258552	5.5016747	-2712.1692	5370.1045	-7003.8184	662702.2
He	1.0	15.018067	2.026551	18.969078	2270.0952	1058.2473	-4110.8115	717445.25
He	1.0	16.263765	10.067925	16.33085	-5028.7637	-2561.5515	3925.641	1.6228463e9
He	1.0	0.9185441	4.4908504	14.785278	-1887.2885	4049.886	4204.756	-123668.77
He	1.0	4.214843	23.09714	3.8430474	-6488.5986	-1998.5726	992.9183	1.9875953e9
He	1.0	20.136522	20.79246	6.7253184	-3534.1895	-4039.1533	944.8084	-41.44498
He	1.0	23.662868	12.78237	23.514961	-1130.0623	693.0246	2013.9706	523632.4
He	1.0	9.244463	14.891838	7.800042	-3159.567	-409.972	667.1739	342.49075
He	1.0	22.19202	4.3584023	10.056456	-7951.1357	-2288.3823	511.90012	-65.83588
He	1.0	11.732172	24.037262	15.986896	-3324.378	-1025.9387	-2531.9177	164.561
He	1.0	9.267638	22.057144	22.552269	-804.46985	6037.487	21450.027	1.7152723e8
He	1.0	5.5006237	3.8197277	15.697144	4702.9478	1881.1162	-2804.3167	328757.6
He	1.0	18.103365	23.284273	18.31252	1028.1632	1373.3402	-8988.369	-61.85171
He	1.0	6.6774125	14.851845	8.973486	-1795.6008	-1519.1508	4136.8184	8810.967
He	1.0	19.758389	10.794758	10.264827	3516.4229	7507.044	8170.12	1.0673118e8
He	1.0	11.13785	23.438976	12.045694	-4466.4897	-2475.4607	-2633.8342	1.2865316e6
He	1.0	16.61997	19.63819	4.757959	-1621.698	8851.222	-4977.119	1.4885491e6
He	1.0	1.6498407	14.967388	13.831551	11870.576	32278.346	62714.543	1.4063058e9
He	1.0	12.608269	2.9811826	18.472296	-4774.4824	-829.05505	-4384.6006	193.04628
He	1.0	10.812267	0.116751775	22.622643	2745.9084	-5.421665	326.39462	199711.0
He	1.0	20.9783	14.517604	10.385348	37450.914	51641.95	-10765.847	1.0914434e8
He	1.0	4.804353	0.019647006	7.1359878	2169.173	-13943.3125	-3086.9944	-1.8154506e6
He	1.0	5.6338944	8.262142	5.5543833	118.82437	-3435.006	-1255.4017	76999.42
He	1.0	20.451029	2.8241992	1.0584663	7009.5186	4333.1143	4792.201	1.8767538e9
He	1.0	8.898922	13.227158	20.336592	-2414.5422	5974.2466	3328.9783	2.6581245e9
He	1.0	9.50207	9.881206	20.96896	5130.6743	-8969.828	-3291.3567	169.93016
He	1.0	11.538554	20.307755	15.9831	-6940.1416	3129.2495	-2245.7612	252420.53
He	1.0	8.522522	0.4591944	0.12510556	-3477.4426	-622.72375	-749.14996	7.2290355e9
He	1.0	1.6546999	2.105475	18.843203	-4262.1997	-5764.9243	4574.7954	1.04832896e9
He	1.0	8.197338	11.191311	7.522037	-1569.9674	3139.1401	878.78424	48809.99
He	1.0	7.9719973	6.9198804	5.9097633	9197.744	2303.344	-5418.539	306279.84
He	1.0	18.94524	17.225233	16.125366	430.25677	-5183.8604	-1862.6716	-2.3465903
He	1.0	1.7377515	23.735153	10.647071	3316.7341	627.76355	568.0071	362288.62
He	1.0	12.232463	2.0388458	11.890655	14171.246	931.93604	7304.967	212.6428
He	1.0	17.28493	22.766748	12.940003	-10126.653	15329.963	18419.973	8.3336083e8
He	1.0	21.950535	21.178635	23.042849	3994.3345	11139.061	19869.63	156767.69
He	1.0	19.952383	4.5309525	17.394602	-1202.5294	3249.8625	4323.515	343632.9
He	1.0	9.149603	2.6596906	21.480724	-10011.898	2625.9973	6465.7144	386716.88
He	1.0	1.1869788	1.8224053	0.9861065	9000.502	-4794.925	-13416.908	5.581285e8
He	1.0	4.693023	21.257643	12.048047	4222.07	-4423.0947	1112.1765	264347.97
He	1.0	19.481186	0.30030802	15.899632	-7591.3716	532.4137	3543.7334	1.0581109e6
He	1.0	3.1102462	4.551675	13.128568	-3830.641	1023.7535	-9220.49	9780.881
He	1.0	20.31396	18.92961	10.664301	-685.812	2.5394077	-1393.4148	124756.016
He	1.0	8.962659	4.042052	14.10031	-6017.2773	3156.0938	1684.2482	1863.2184
He	1.0	8.805758	11.382902	0.3822219	-2067.2092	-7444.674	20355.965	751538.5
He	1.0	1.3933831	14.85703	18.609625	668.22363	-1840.7228	-5526.5796	521268.44
He	1.0	4.703845	17.88015	15.194794	609.56213	-8361.446	-4011.7075	1.4584354e8
He	1.0	14.614712	12.988547	10.553726	7252.729	6152.1514	1980.2007	498664.4
He	1.0	15.004472	17.268719	1.9067171	1798.1477	-453.10623	4428.156	-79160.11
He	1.0	2.2007499	6.999657	10.213924	-5028.8955	-9963.822	914.7462	29418.977
He	1.0	23.48313	2.935873	19.007767	9835.005	1343.6936	-1207.1475	1.3792805e8
He	1.0	22.81499	1.7563411	0.92464817	-1490.0315	66.54338	4012.5515	281616.3
He	1.0	19.354155	3.2903569	8.4921	1532.1984	-2456.746	2939.7815	9.132998e8
He	1.0	6.975363	14.1732025	23.165161	7190.2	932.8203	-10414.126	186892.33
He	1.0	13.391665	0.1871879	19.891699	-2390.5305	1694.1179	-7472.3774	509869.72
He	1.0	10.385431	12.431965	2.2980638	-2096.5676	2081.0723	1218.029	4.845887e6
He	1.0	21.772297	17.831331	18.364866	11814.213	13687.59	-44682.38	534327.44
He	1.0	3.3350828	7.8193197	3.9805808	25847.219	-9680.266	34686.754	4.1118346e9
He	1.0	15.598192	14.52402	6.1219707	-3993.7312	131.92592	-689.81946	1.6204301e6
He	1.0	19.450686	3.4261446	10.615099	885.07574	-342.48358	-6786.3613	278.7041
He	1.0	17.364887	14.336243	4.7432036	2044.0509	-3735.9504	2955.2952	6.326997e6
He	1.0	13.483318	18.833199	21.206686	6829.4194	-12621.246	3833.4507	1.6285144e7
He	1.0	18.732399	10.106594	13.117214	1641.7815	6750.095	-2339.6846	112902.68
He	1.0	9.851101	12.523947	6.8235164	14998.535	20932.24	30030.926	4.5349187e9
He	1.0	14.053579	16.227571	4.2828546	-3892.59	2731.3254	5881.002	-126651.055
He	1.0	7.8664575	1.152399	17.281164	2399.118	-4937.7036	1446.6438	124200.23
He	1.0	5.888659	12.311684	12.432926	-3622.239	-5135.454	10515.579	132034.72
He	1.0	23.00448	0.83877647	14.563409	1709.0269	-2975.954	-1968.1907	13837.426
He	1.0	10.532923	22.005732	9.699607	2053.8037	-1043.1838	-4108.901	-146946.69
He	1.0	8.114712	18.648798	20.660515	2120.7935	-2854.3904	-1925.5863	50.64038
He	1.0	12.69847	9.2084875	18.17301	-535.363	2852.4097	-6924.2466	-11.474527
He	1.0	4.2210965	6.588725	9.655482	-6892.5747	6778.2456	-1084.7446	-38815.016
He	1.0	22.188879	15.404384	19.347158	-2808.8445	6522.384	-74.24039	-36.23323
He	1.0	17.87692	11.451893	8.917801	15451.634	9108.408	48124.816	9.620369e7
He	1.0	7.655413	9.789123	17.908695	386.7952	9094.012	-967.34393	3.5572342e8
He	1.0	4.233658	2.263202	7.177588	-7052.3647	-2186.0012	2043.2155	-92.770424
He	1.0	14.525696	6.662096	8.4216175	-5295.1304	-6199.1245	8896.814	1.5592374e9
He	1.0	2.802788	4.739515	8.9219055	5770.3726	-275.9026	4654.95	42784.242
He	1.0	0.7529002	7.8351054	4.789468	4360.7314	1614.459	393.3429	151.89629
He	1.0	11.305409	13.24245	12.550949	8979.716	-3579.056	-5978.2017	-1.5432018e6
He	1.0	22.195347	20.100277	15.143993	-2085.519	1645.7213	6117.528	139.96954
He	1.0	9.656629	14.517668	16.361225	-929.2216	3895.2156	10504.246	-1.1823515e6
He	1.0	4.3211656	14.228275	9.327147	5420.2744	4471.6836	-1188.1603	-58.378807
He	1.0	10.945848	17.853807	0.92205244	111308.664	-58384.293	-55245.586	570797.25
He	1.0	14.241235	22.43785	20.851791	-2548.6235	-5221.1226	6603.814	-425937.47
He	1.0	10.188751	22.32416	13.537044	5924.6646	3056.76	-3080.0955	-28.381868
He	1.0	21.031715	16.040668	22.56136	11958.5	9927.65	1382.9832	42606.32
He	1.0	9.915341	19.084381	4.7761345	-194.76547	-1761.5681	4958.4727	109312.984
He	1.0	22.772623	3.2665215	22.917868	-4414.586	1980.2817	-1803.324	2.04522e7
He	1.0	13.295297	13.680224	12.542672	-5281.7095	3808.829	4359.8	-143653.95
He	1.0	12.870135	18.151999	1.2716569	46461.57	7080.53	11258.239	70578.19
He	1.0	9.533674	16.124971	15.109467	-1849.2375	8058.333	-249.09343	2.5931413e8
He	1.0	13.416717	4.402943	4.7770767	-3976.8464	7499.009	6773.568	1.1203619e8
He	1.0	13.023532	14.277191	3.9794219	-4409.9556	2826.237	4379.546	777083.75
He	1.0	21.18185	9.632412	18.281086	30163.645	-32855.395	48462.566	462101.66
He	1.0	4.5697947	7.9919853	19.324398	-4970.0796	-2874.206	-6345.1895	-346923.53
He	1.0	22.671339	8.089035	5.108381	-5022.646	2170.8862	-2359.1777	-42.107304
He	1.0	17.62099	3.7209833	14.177296	6694.75	2018.3245	-46765.73	5.6150668e7
He	1.0	3.9805825	1.8880228	18.315895	-6257.659	4395.017	2001.1567	-141.34828
He	1.0	9.516303	20.689812	11.132019	-5126.025	3388.6707	2623.1575	53.997063
He	1.0	0.096174434	15.351498	16.8938	-7018.9224	-6.1777215	4709.5728	-151.1376
He	1.0	21.829529	9.6239395	6.1835523	-1286.075	1253.6361	-4010.1506	159388.95
He	1.0	1.7337171	14.356665	20.896698	733.1114	-2372.6309	-4628.9033	189.36249
He	1.0	2.6004934	18.037832	9.384093	2060.584	-2051.9585	-7616.0	192.56839
He	1.0	17.176126	1.7837299	7.417147	-2327.4097	4284.7583	2198.7659	-3.4726722
He	1.0	8.103033	16.695286	7.317116	8280.845	-4381.9844	1793.0398	18693.678
He	1.0	22.38966	9.975148	3.3440456	-5939.4487	-5490.2334	-683.28284	204934.86
He	1.0	22.18512	15.385897	13.932458	-6724.275	2059.9397	-620.6231	-102.10528
He	1.0	21.441435	13.633747	15.666069	4587.009	-2511.5723	3432.0056	7438.3003
He	1.0	10.183851	12.304776	9.488953	65968.15	-115845.234	-66994.77	965319.2
He	1.0	16.946312	14.456784	0.15768676	-4997.1553	5076.504	-6434.8047	-863489.8
He	1.0	6.55097	2.1627061	8.728421	-45862.023	64425.668	15074.397	741663.56
He	1.0	7.8003573	9.252775	10.308303	738.83466	-137.8635	4081.32	73631.38
He	1.0	9.294677	16.779615	22.132612	36770.867	14311.535	67346.8	819558.0
He	1.0	10.542383	2.0000203	3.2306247	-2648.5315	4732.2407	-865.0112	799975.94
He	1.0	15.820737	17.318642	19.04135	-2457.0425	-2480.9526	-1243.7634	113735.15
He	1.0	20.50509	0.71287715	0.5030333	2497.4565	-7744.4165	7405.838	391638.3
He	1.0	4.5990868	15.353422	7.608669	4364.6567	93.66023	10685.707	-1.2570724e6
He	1.0	13.785998	8.753545	9.345158	9376.193	2617.0708	-69576.52	6.138604e9
He	1.0	6.780644	23.964167	12.077387	2102.4585	-1699.9918	516.6161	26838.027
He	1.0	3.3495114	0.9364376	15.8841305	5207.844	17113.31	-15805.251	2.7130922e6
He	1.0	11.22733	1.212135	5.251216	6076.485	2661.6226	4148.9473	-563645.1
He	1.0	2.0625196	8.449654	16.215923	-19.133795	6692.06	4743.3267	8.786559e7
He	1.0	5.018337	2.588225	10.38443	4568.1787	-18851.738	20698.887	1.9087152e8
He	1.0	17.354603	2.6439123	12.496804	-75600.19	42167.25	41721.016	432413.84
He	1.0	10.60425	18.167023	14.660352	72913.81	24195.854	121187.02	6.369834e8
He	1.0	0.8839112	22.85817	6.29717	1351.3203	5940.2866	-4427.48	5.8164265e9
He	1.0	4.1079144	0.10586422	1.3743882	1849.2112	-2624.8972	2685.6616	271111.66
He	1.0	9.543789	19.847008	15.792589	34518.336	25108.832	-9256.932	2.697712e9
He	1.0	9.187343	13.486123	22.299543	661.7716	-2742.9417	11.938945	1.0784182e6
He	1.0	1.6778792	18.551317	5.296756	-2760.289	-3108.6797	6125.995	-68.94041
He	1.0	2.7097979	11.2879305	8.99405	-55584.92	-12292.039	8616.232	1.0744028e6
He	1.0	24.011375	14.564742	20.049187	2288.8103	3611.9949	-26975.234	138717.02
He	1.0	2.6078756	10.220456	15.020076	-6186.563	151.97546	-2317.9482	-274180.97
He	1.0	13.112193	11.366481	6.412813	3394.0942	-3420.6423	4364.971	5.562695e7
He	1.0	14.765749	22.004496	1.1821462	994.2136	-2147.2527	-3277.943	1.0217375e9
He	1.0	22.271082	5.74883	4.27483	5705.6323	-4613.138	6233.336	4.0648735e9
He	1.0	2.0684202	9.35008	21.654392	-1145.0255	10563.944	4339.1035	2138.1152
He	1.0	10.762761	8.996701	23.950745	3688.4287	4443.8105	1824.2091	9.017849e8
He	1.0	12.51714	18.626944	10.269238	1942.0465	-1547.2128	4616.464	1008.5179
He	1.0	15.702259	21.262777	6.2700896	2554.812	13150.79	-3971.339	1.2449853e8
He	1.0	0.4880683	9.652499	16.818943	1119.4908	-1987.3503	754.2632	782347.56
He	1.0	7.371137	3.0247643	10.318602	21272.412	10574.304	26913.066	51184.383
He	1.0	3.5294936	3.5087245	17.224903	-7396.5005	-2715.6099	-434.43307	91.895256
He	1.0	21.296854	20.555483	9.48855	-2005.2625	3708.9783	4673.9976	2.457771e7
He	1.0	8.910964	7.5841503	8.420631	2801.935	-2363.6465	2175.2146	56131.758
He	1.0	12.678117	20.022354	2.5669086	23303.598	-15315.08	-33161.227	5.267865e8
He	1.0	5.917501	7.803839	14.484975	-948.1978	-8292.282	30854.7	7.0274615e6
He	1.0	7.854766	21.394934	19.204496	-17439.39	31194.502	713.23474	8.6328736e8
He	1.0	17.507149	8.350945	23.848383	10202.526	5708.9556	8428.848	506979.78
He	1.0	10.379136	5.212419	22.300997	-6261.343	1519.5612	619.4726	214086.77
He	1.0	17.660408	4.850913	19.660454	-2195.9473	-5405.0225	-2529.8472	-321444.1
He	1.0	6.0380306	8.297533	12.559519	-4098.867	7223.256	497.866	263884.38
He	1.0	6.7826123	0.37190008	22.762148	1468.5741	358.19003	-3232.4177	42.900692
He	1.0	12.587029	15.076478	6.137715	-5245.6895	-2512.3333	-5406.993	12.563764
He	1.0	19.217777	20.38117	21.267166	-2644.1135	3418.1177	3493.9685	34.618027
He	1.0	19.83609	6.6077514	15.45043	7591.3765	-2357.4731	2679.3953	52113.76
He	1.0	0.03258457	21.218124	7.547305	14390.23	-13452.817	31350.455	38399.82
He	1.0	12.074652	3.4427052	10.461409	-419.9676	238.33397	5336.4775	-34.81315
He	1.0	19.344002	23.991655	20.006239	9862.182	1665.3474	-1819.7312	4.508322e7
He	1.0	5.377284	18.25846	17.318594	-1499.1608	-6348.476	-11909.541	1.4930259e6
He	1.0	12.0429535	13.592732	7.434503	751.32043	-1456.3115	1081.4534	53888.332
He	1.0	21.43651	19.951677	21.564524	-6237.6543	-16357.401	-15675.591	162183.12
He	1.0	8.75244	8.095952	12.492471	18627.23	18663.713	12158.253	26312.623
He	1.0	2.2409153	13.036219	15.854804	2711.5393	8408.631	4363.444	-718551.44
He	1.0	5.503656	17.49567	5.1987734	-2134.959	7234.0933	-2143.8984	6.9085825e6
He	1.0	21.054598	15.720588	7.5381436	1284.5627	7100.62	-5202.9487	1.562255
He	1.0	17.006668	6.7364144	18.814413	-991.22015	4479.2505	125.090324	1.3014492e6
He	1.0	4.277275	15.880663	1.6743855	6838.4556	6626.424	3963.3215	-837794.94
He	1.0	7.923527	3.8240383	3.6289475	-2569.5063	-3030.659	-6379.4497	-23.988415
He	1.0	10.956491	3.029098	6.5798755	-2747.6743	-1732.4795	3566.5881	1054.6453
He	1.0	19.502289	7.256281	23.53481	2561.9304	-4506.699	1162.7551	722.6619
He	1.0	15.428312	14.480855	13.529686	-6916.3325	-8062.619	-4641.4126	5.6770227e9
He	1.0	9.808041	23.295246	3.5723953	63959.54	-55402.33	-12422.155	2.4738443e8
He	1.0	1.5853503	7.519545	21.031256	40492.82	-39530.477	97527.695	2.172512e9
He	1.0	7.8108916	6.722976	21.991764	-4614.8003	-3289.1414	-3302.9187	3.157254e8
He	1.0	17.478064	10.812702	7.0871773	9174.503	-8967.482	56268.535	623519.0
He	1.0	22.7721	3.3151126	11.692057	-1727.486	-3567.4739	1693.63	26.464584
He	1.0	14.435841	8.892889	13.524588	2325.4578	2418.4067	4588.199	2.7734205e8
He	1.0	3.8122656	10.238204	22.993862	681.0249	297.733	726.60785	21979.434
He	1.0	20.576101	13.78211	13.223214	5725.1646	4062.9045	-1973.399	-82.41207
He	1.0	5.175495	3.472652	4.6667504	8669.079	-4243.343	6787.0957	-2.197738e6
He	1.0	16.607952	11.563334	18.739388	5602.3506	1133.9159	-2593.8337	-12.825876
He	1.0	20.333055	14.669281	0.24166295	1447.3273	5740.7383	12063.942	5.0735123e8
He	1.0	11.860381	4.803101	12.240718	-3897.8477	10226.781	1964.5299	9.800837e8
He	1.0	12.073138	11.860656	14.725284	3918.0156	-732.99664	-7409.62	3.3023104e8
He	1.0	0.16822599	13.277822	13.888788	687.9552	-4696.7837	-2709.456	-15.296684
He	1.0	0.5753243	23.668985	15.971815	6271.4976	3677.2922	5031.7656	-44.161026
He	1.0	11.703523	23.873981	3.3548682	15114.996	-1096.3647	833.1277	13356.331
He	1.0	11.574554	10.671835	2.7553475	-2417.212	1675.806	-1454.6339	7.915455e8
He	1.0	12.77838	9.965772	20.23754	4258.8555	-8433.026	-2445.8936	1.7888013e8
He	1.0	19.137962	13.522423	2.151592	-31384.984	22766.41	28465.414	1.4920988e9
He	1.0	14.79026	8.332831	22.800537	-10619.467	7233.6836	4961.178	4.04816e9
He	1.0	7.2816997	6.8566	11.984609	2199.9	-35926.812	4079.5842	6.538276e8
He	1.0	6.069448	7.7276354	0.19761036	169.39558	6319.93	-530.0004	16.833868
He	1.0	21.479078	12.052772	7.9986606	-239.93532	-7889.079	4620.164	-124.15089
He	1.0	23.359318	21.476236	16.729568	-6104.1577	-12891.09	122676.5	1.4965165e6
He	1.0	20.755579	9.734297	8.899067	-813.2848	-802.5824	-11260.252	21615.5
He	1.0	5.1692295	8.893888	1.6158161	2575.5383	-7428.7485	3700.4363	14887.781
He	1.0	18.826698	14.153329	16.915705	249.30725	-3700.8513	-1530.9962	4.999699e8
He	1.0	9.567963	8.179939	22.036198	69038.086	-28737.879	-56609.543	73054.15
He	1.0	15.773822	12.476804	12.872282	1516.6725	3488.2046	-597.80914	-10752.186
He	1.0	12.503215	18.442352	23.175722	-7160.7827	-1881.8424	-1503.6309	-322025.53
He	1.0	5.342383	16.12062	3.6373265	427.4769	-2965.186	3404.9011	389928.78
He	1.0	22.2267	12.571804	5.8685746	2417.321	-2019.7798	-5180.2993	-320273.25
He	1.0	5.622493	3.0835235	19.63358	-3112.8652	-4212.008	-5404.569	-33767.465
He	1.0	12.827871	1.7228092	0.10194191	-1125.0845	5330.2334	-1600.4594	9.55337e8
He	1.0	15.951189	0.087906785	17.110626	4081.7537	-2316.6602	428.9993	-26971.994
He	1.0	1.0333104	21.094637	4.1056724	-1504.7697	-4073.5374	-3142.248	-17551.305
He	1.0	21.610447	18.280258	13.858894	-2716.268	-4884.916	6503.7573	-690504.3
He	1.0	19.033712	0.12691732	8.848774	8142.8896	810.0586	3094.5386	2.1221979e9
He	1.0	11.875437	4.7564383	23.720732	4280.4375	55.27602	-10575.072	-1.060082e6
He	1.0	10.31144	6.415758	19.848722	4497.355	-1801.1289	3009.316	168.66556
He	1.0	5.9543037	6.388068	2.5837376	3475.672	-5370.2236	-122.17245	267.4153
He	1.0	6.691463	22.59095	4.6338115	-7401.4834	-7697.672	1039.7416	-268.67346
He	1.0	2.9209833	8.810576	10.648537	-542.39355	5610.1733	3082.133	1.54588e9
He	1.0	22.992092	5.7659636	22.145197	2036.834	693.88434	-6359.6226	236.7336
He	1.0	15.261837	1.9665331	23.368444	-1878.412	-7484.1836	2558.561	457749.25
He	1.0	10.709146	18.345707	11.1364565	-2352.912	-104.12833	2741.0327	310.9188
He	1.0	16.358202	12.87189	9.23284	-5243.985	-1573.4749	5431.38	-459358.25
He	1.0	2.6171591	23.918665	12.675532	1708.9093	2829.944	8818.826	-169.46452
He	1.0	1.2956889	19.961454	14.535495	-1030.3524	-1201.9823	-2595.1448	-41690.812
He	1.0	19.5782	9.592814	7.0833526	-590.13855	3731.2917	-7698.728	-88.7108
He	1.0	13.449814	12.067569	19.709835	5223.416	2989.623	-4478.753	1.1251981e8
He	1.0	0.6702228	12.645919	20.702711	-2015.7921	-1098.9082	-897.341	56.18267
He	1.0	17.965433	4.4734273	6.925822	-816.7168	3246.5786	1032.5496	67516.01
He	1.0	3.2832353	7.578886	12.355221	-39987.902	33565.36	-3482.576	1.5345825e9
He	1.0	23.762383	16.238123	11.856915	-26991.602	-35196.848	-59782.336	104179.914
He	1.0	20.483154	18.292633	6.355799	1781.3481	-1404.4648	-462.60638	252234.55
He	1.0	0.780544	1.8348818	8.851014	6491.694	-2575.0396	2248.2302	-110.13407
He	1.0	5.8259277	22.26246	19.044596	3273.1814	1666.9774	3658.883	3.0808848e7
He	1.0	8.675361	1.9978354	4.72359	-1686.9121	-1465.4026	-2826.3809	9.9633816e7
He	1.0	15.219543	12.202937	1.580257	-353.0701	1516.3145	-2855.3923	54.49033
He	1.0	15.345897	4.080241	3.5040114	1581.9979	-4972.6104	4460.4316	55.308594
He	1.0	0.5355341	10.019867	22.810995	8072.51	1788.6473	-839.79846	-530185.7
He	1.0	4.7871656	16.714855	10.271519	7487.345	-67055.445	-16504.11	144295.4
He	1.0	8.491822	4.7993765	20.9934	-5961.7407	2936.5583	4689.1543	474407.53
He	1.0	19.086012	12.2109785	17.50733	2960.1416	785.7677	-2032.5599	36549.996
He	1.0	19.279226	15.27587	21.99557	-15571.568	-8606.099	-4250.976	2.2211643e8
He	1.0	19.773605	16.412127	14.154151	7644.401	-33.8769	-2805.2043	-108.9244
He	1.0	1.5523053	5.275091	3.7164528	-2934.292	-2761.1519	-4654.6978	126710.88
He	1.0	4.853542	5.100581	19.205755	-3695.348	1180.1628	-139.58423	89.0408
He	1.0	11.701954	5.035003	6.1447415	132948.39	-144855.98	120247.0	597509.5
He	1.0	23.837193	14.214589	21.999594	-6409.275	-4536.594	24520.752	7.6886246e8
He	1.0	23.787586	1.4548132	12.009746	-6560.2583	7425.1357	-4633.1997	3.0501152e8
He	1.0	23.69528	0.31309855	9.530343	972.02625	9644.747	5469.1064	4.359665e7
He	1.0	0.8219693	13.2213545	9.409718	-193.63579	1295.71	-107.15568	93.04988
He	1.0	6.989265	10.009078	12.038178	9175.005	2511.6206	4721.299	-166.29988
He	1.0	5.0725164	16.620674	13.462939	10305.001	-7.1093626	145.90741	-191.90373
He	1.0	9.8024645	8.372458	19.642416	11187.635	-6533.89	37699.54	1.3410217e9
He	1.0	3.2850485	0.33019555	20.209124	-4620.969	34735.23	15403.211	1.3438908e9
He	1.0	0.7523003	10.154137	0.72983885	-1521.1526	4114.449	616.8827	518055.72
He	1.0	20.468105	22.324009	20.357918	3870.204	-6114.483	4016.976	7.133342e9
He	1.0	6.958698	3.1871629	22.293957	-131911.2	-76362.22	-56132.26	296156.25
He	1.0	22.491947	19.923418	11.765783	4944.9644	3501.4668	22.784937	-44.783367
He	1.0	13.294395	18.842892	15.098546	-7576.9165	-4868.192	-1257.2495	136270.3
He	1.0	20.831432	2.8514957	15.955379	-1882.3046	-3410.3281	22553.025	6.387515e9
He	1.0	11.681072	0.07528014	18.513073	4939.024	1072.328	-6492.3896	6.3138084e9
He	1.0	14.784533	19.167025	2.7769873	-2301.872	4754.9233	-5536.0117	-131.33246
He	1.0	17.820234	6.2967257	13.775569	-37035.016	-11703.469	26406.867	6.206043e9
He	1.0	9.288379	3.5437207	19.6627	9161.904	-8452.344	-16656.928	191309.83
He	1.0	6.5891466	23.233355	20.779243	-206.22298	6997.336	3720.4338	-51.812805
He	1.0	10.939474	2.089179	17.193272	1842.663	-7776.6553	-2488.18	985097.0
He	1.0	19.615967	20.16589	12.572569	6236.965	12.549937	1484.124	-55.416744
He	1.0	12.043601	21.262266	22.340664	4974.0776	3232.4932	-6600.1177	494001.47
He	1.0	22.884382	0.7671405	7.75987	1791.4503	648.4287	2729.458	90922.56
He	1.0	14.273125	14.066203	8.902429	-1587.7844	-5822.9854	527.3278	4.8341565
He	1.0	11.441524	2.9762354	15.250877	-3042.5703	-1075.8246	4780.121	113.89525
He	1.0	9.983586	11.687638	22.891054	9921.219	896.293	42894.586	4.313356e9
He	1.0	12.457973	12.033169	17.852983	-3388.7651	-5082.036	561.05927	263.03864
He	1.0	23.714615	6.0834155	19.467049	3420.499	4509.5312	-1692.3977	-74.032005
He	1.0	16.94918	21.890257	4.6525955	39224.43	10207.567	40474.85	5.4901197e9
He	1.0	20.628017	6.6126018	2.35598	-8647.01	53799.82	1748.3018	2.1902963e9
He	1.0	12.776471	0.94713646	7.7179117	391.2385	-4733.291	-862.7348	268345.56
He	1.0	14.785739	14.368306	2.27116	-31019.834	18625.037	-111862.91	79493.19
He	1.0	15.064043	15.277292	20.173117	6617.963	-6543.8447	5212.793	1.7221984e6
He	1.0	10.1182995	21.740292	18.342194	4865.364	-1641.9658	3016.0261	632956.6
He	1.0	18.04609	17.322731	22.646498	-10212.198	-5358.4395	-33054.445	4.3174717e8
He	1.0	14.322893	10.527786	18.182312	-2290.1	-1285.1917	-4144.3936	2.7885245e9
He	1.0	21.325706	0.8350794	19.133177	-3635.9915	-1852.0725	2714.665	1.8158774e8
He	1.0	18.235893	7.698603	15.941117	-11130.996	-3656.0603	2924.02	2.5520411e8
He	1.0	18.047316	14.52869	13.506216	552.4601	-2888.087	-4374.035	9.117093e8
He	1.0	11.825838	15.020501	11.626888	1858.1809	2458.977	1037.29	447769.84
He	1.0	15.535626	18.720005	15.343446	2686.5576	599.66296	-1069.2106	26914.564
He	1.0	13.0852785	8.12672	16.401962	2689.0498	3773.0447	8594.967	6.7839576e7
He	1.0	1.9031074	3.2567937	2.3346727	-2957.0432	2671.7073	-60.57533	1.765162e6
He	1.0	8.762968	9.096617	14.5953865	-1568.9006	-3006.5818	-2686.9082	3.2088752e8
He	1.0	7.0466228	10.507608	22.855822	3990.3262	828.70575	-2763.7341	8.880458e8
He	1.0	5.750101	17.71087	0.98793066	11871.181	1564.699	4628.0615	3.5781162e6
He	1.0	6.5838184	0.49580273	14.865804	-1916.856	4873.5015	1479.3246	1.1437463e9
He	1.0	16.245422	0.49687535	22.142597	-4994.608	3151.891	-1042.3807	4.375315e9
He	1.0	12.619711	17.77625	7.5121756	-553.5252	113.831825	3650.0405	5.3184256e7
He	1.0	2.4366982	12.072687	21.603817	-8014.043	5830.3486	1353.1807	8.186776e8
He	1.0	24.009502	10.988772	8.923337	4847.4087	5728.1006	2131.001	-171096.47
He	1.0	0.106344424	12.034092	6.8579993	-3322.2634	4910.705	2716.5854	-381453.3
He	1.0	10.656013	20.024622	0.7726328	-4783.1562	-9707.844	-269.48773	-127.39814
He	1.0	6.25896	15.78652	0.15905136	-6655.906	86.12657	1989.5178	786397.75
He	1.0	14.009645	6.154716	15.963062	-4489.3003	4104.37	1041.7185	6.8604913
He	1.0	18.33214	4.3067517	4.9663343	4176.1035	-1241.2095	-4757.2334	1571.6859
He	1.0	18.595139	4.6052494	22.562958	4232.637	-650.18695	-423.88916	12304.234
He	1.0	6.1133413	22.839514	10.413458	101.464096	6072.6074	-2323.568	-56.328205
He	1.0	4.075527	1.4849064	12.003219	-448.4211	141.98425	-170.54498	313938.5
He	1.0	17.933786	9.702045	21.177149	-5298.8994	-15013.463	9244.527	471949.0
He	1.0	4.5668964	16.364092	20.593262	742.2724	-4338.141	-4744.3643	2.7286492e9
He	1.0	2.228865	22.684372	7.933147	-7205.982	3516.701	5557.356	-87.34024
He	1.0	11.0089655	9.224561	13.632998	1192.2217	-2142.0857	-2908.648	2.1121916e9
He	1.0	3.7460244	7.982489	23.579512	2182.1255	2478.26	2583.938	108.14734
He	1.0	19.92884	18.568407	19.620375	4810.928	1589.2004	5870.2	5.499028e9
He	1.0	2.6533391	21.773657	16.056292	1411.1765	-5619.64	8463.499	76451.12
He	1.0	23.756298	10.229638	20.16618	-5717.2227	-1483.1053	6561.9976	-750638.7
He	1.0	6.781754	18.271145	7.715358	-4162.657	7133.154	2423.2825	-820728.3
He	1.0	20.454336	16.247028	9.505227	983.99945	-4646.253	2394.2441	1.0700739e8
He	1.0	14.988177	19.587347	7.0809093	4485.547	-24878.441	-10300.531	327244.28
He	1.0	22.248264	4.8055215	17.502306	-4279.7144	908.3593	7881.5703	1.167438e7
He	1.0	16.129803	18.267454	23.449776	881.84717	-285.72137	-1386.5896	7.871444e8
He	1.0	5.6616206	20.19899	14.567755	2708.231	5503.771	680.03296	153.56247
He	1.0	16.27816	8.086206	12.582397	1874.1832	-1560.3317	-373.87775	2250.1821
He	1.0	19.565521	2.568212	3.3417928	-1084.0216	5461.205	2775.5576	1.1046047e9
He	1.0	0.5283268	19.778448	8.883017	3898.4873	1796.9207	-124.59421	1.1272202e6
He	1.0	6.641459	11.553584	16.794659	1020.94183	1825.5315	-1299.0416	395690.6
He	1.0	0.4925893	20.159594	1.5302675	-8826.503	-3268.3257	-1462.5321	-51.184418
He	1.0	22.501936	13.458775	1.9268321	-13513.764	-50233.363	-33333.29	2.2245343e9
He	1.0	8.273516	11.404113	11.15031	2811.4058	31.026653	-1066.8025	14.510039
He	1.0	0.65414345	7.6491537	23.289085	2895.4119	7911.646	4346.4395	43.12776
He	1.0	6.5634103	19.640879	21.524364	-4425.192	2760.6843	-1046.5968	-30.883081
He	1.0	8.448012	5.0331597	5.3661737	7138.4805	4754.4155	3871.961	-1.0448965e6
He	1.0	17.661045	1.9638897	9.392948	8908.457	1231.544	-2575.5093	149023.02
He	1.0	13.634356	4.0289626	0.60922134	2096.607	6070.254	-3387.871	15.176361
He	1.0	14.806149	22.820766	14.24774	3338.5686	-1834.2263	2183.712	675361.6
He	1.0	8.137636	18.672194	9.382031	5089.035	2341.3608	-3400.958	-13.908233
He	1.0	8.173357	7.465241	2.4505527	14473.898	-3637.0408	2990.6536	-2.3359262e6
He	1.0	16.629932	9.696191	10.465886	-3734.6426	4232.338	3455.502	-88.10334
He	1.0	10.390792	23.278421	5.514696	-5968.3677	152.88988	4111.0103	4.2390555e6
He	1.0	23.181181	4.686394	13.711097	7850.67	593.7859	-232.62999	3.2935952e8
He	1.0	3.621661	11.167783	5.788556	-51494.855	29238.19	63768.465	499343.88
He	1.0	21.589306	15.887452	4.9683337	60527.375	4035.1128	16199.306	2.0454523e9
He	1.0	10.450814	15.79851	1.6130606	1562.2986	-2413.7559	1530.7485	30360.943
He	1.0	21.259113	16.680708	16.514753	4709.6284	-5827.873	114.43587	-29.711044
He	1.0	17.673094	3.0211685	21.216223	1560.4268	3206.2188	-848.2284	97.083855
He	1.0	5.1806407	13.127697	5.1302886	-68446.055	-48900.7	-65510.266	1.3368488e9
He	1.0	21.274405	22.740385	0.2056613	-3164.286	-1903.2607	-1393.7844	1.7546892e6
He	1.0	21.689543	19.340763	0.9438441	-5308.222	-3888.1494	4949.7656	2.4401976e8
He	1.0	3.6639147	22.497839	19.811155	7807.045	-13079.417	-6605.982	66686.46
He	1.0	13.181243	6.328454	5.667146	6901.2812	259.20923	-2606.725	-460253.7
He	1.0	9.384959	14.932705	13.468609	4168.606	-941.3215	4394.869	157569.4
He	1.0	4.7377877	1.0814985	9.016692	-559.67957	5746.587	-3668.4858	51.340584
He	1.0	8.501609	8.956368	5.87512	-2433.685	4957.049	-6605.4155	-80.93861
He	1.0	18.20733	21.808468	22.278364	-1263.388	-16046.517	-199.92374	1.3834706e9
He	1.0	11.862893	20.541632	10.567854	1176.3177	-1677.2782	-6039.417	1.9892096e6
He	1.0	7.004124	18.560736	2.4048188	-4810.6216	1100.7982	5516.1416	-132.12926
He	1.0	16.256079	12.8169155	16.176416	3542.7178	-668.89307	-2869.8315	115.80267
He	1.0	22.584408	11.33807	1.0707829	2682.2942	-6417.488	-2648.2542	-252430.22
He	1.0	15.484257	2.659333	14.414932	200.6219	559.072	1601.7231	2.3526776e9
He	1.0	3.6104918	6.4723206	14.165416	3227.986	-6667.0586	971.72034	-552116.7
He	1.0	14.232783	14.120077	21.689594	8050.383	-3514.2566	-2310.3481	505170.1
He	1.0	17.40391	10.090075	1.1584207	869.266	-3362.283	-3873.0447	653647.0
He	1.0	4.507158	18.225248	19.118628	-2232.4177	-221.91599	625.7348	81.23373
He	1.0	19.298496	20.647448	4.3102098	-532.91675	1975.8647	-2597.8457	281404.6
He	1.0	23.93748	12.874303	4.429031	3616.3657	1346.2222	-3913.8306	394609.62
He	1.0	7.2177863	14.951078	6.907901	-9742.649	-6432.1514	7766.3633	58091.316
He	1.0	4.1087465	22.753649	5.830308	5221.8213	-3141.0051	4191.25	151.46518
He	1.0	4.922533	6.5011873	12.580511	-97884.586	51093.38	-58472.383	2.4300823e9
He	1.0	14.9028	22.252626	8.131703	6763.5786	-806.9703	-4585.3105	-57.166008
He	1.0	13.479705	1.7943414	15.133743	2611.8984	3290.365	1471.1136	802799.94
He	1.0	16.767155	1.2980232	1.004581	9513.951	-15229.353	-8830.253	1.543906e6
He	1.0	18.374365	6.176727	17.300886	-5363.213	4375.331	5507.1436	-631126.44
He	1.0	18.390598	16.009296	9.792278	-6745.0107	21054.277	7024.08	1.1520836e6
He	1.0	14.204452	18.755209	18.873585	7422.725	2596.4978	-10202.21	339958.28
He	1.0	15.11681	9.449384	4.400142	3379.3784	-1592.9634	786.8208	1.069643e6
He	1.0	17.934938	4.8046384	12.010641	83.61127	2767.9236	-2384.5605	-0.94115674
He	1.0	9.630504	17.69085	16.821016	76557.84	-57817.74	6449.2505	4.0860984e9
He	1.0	17.13812	20.7981	13.231351	33284.78	-53112.31	-70999.65	2.325851e9
He	1.0	11.775534	6.984616	23.699827	1214.706	-4599.7485	8129.843	267.5009
He	1.0	0.661002	7.2784977	6.8866444	-4309.4126	-6279.781	-8.969885	-352524.25
He	1.0	4.156693	6.866291	16.841183	-40909.32	28519.182	-17777.65	1.8510066e9
He	1.0	8.391695	20.908432	17.198673	9418.444	-634.0372	5349.0884	830525.06
He	1.0	17.044636	0.95363694	20.153551	-274.50067	-1601.5917	1070.1276	248846.42
He	1.0	2.6038384	4.0097556	5.2001534	-5106.0293	3050.9119	-4021.601	9.785909e6
He	1.0	4.566369	12.252717	10.914456	5498.558	3503.2253	-3385.7869	2244.995
He	1.0	10.676619	4.9212213	3.6511805	4490.765	608.98737	-1899.7974	264736.38
He	1.0	7.899274	13.364659	14.991759	6641.9214	-3586.2305	-4877.966	343987.47
He	1.0	6.258243	14.576443	18.864386	1764.2001	-3231.8474	1959.1593	1.3018083e9
He	1.0	10.053737	3.4414673	4.8432326	-5313.08	2643.1687	-391.3336	4647.0244
He	1.0	6.9499655	14.708259	1.7996068	3332.7947	-7952.8105	2870.4802	-603720.2
He	1.0	6.6116586	17.404926	22.25945	-2222.2427	-1828.5002	1618.6144	366943.7
He	1.0	21.438606	7.5689197	23.133423	-17318.033	21961.725	-10918.993	4.939785e9
He	1.0	18.572344	18.4336	7.0111613	3362.9841	13796.445	26072.332	3.0074368e9
He	1.0	10.702869	20.128988	14.098521	4706.9526	-1805.8298	-1815.561	0.5473408
He	1.0	0.960146	3.6888022	12.950973	-562.5372	1827.306	3777.9858	-36.188503
He	1.0	19.72413	1.7749852	14.451831	-5743.916	2533.374	-2297.151	8.747801
He	1.0	17.541761	21.113373	17.377975	-6165.581	2130.5232	-1068.1022	348344.38
He	1.0	23.134045	21.537928	2.3124366	-9162.064	124.745346	-6512.8623	-1.2767898e6
He	1.0	12.902647	3.1103358	13.555966	278.488	-883.0144	-2829.5405	-81155.805
He	1.0	2.952658	13.832328	17.78587	3435.0461	-110.99036	4203.834	698233.94
He	1.0	0.33885065	17.810118	2.6809604	3271.5833	-3141.798	1634.7489	449022.56
He	1.0	18.326017	10.112348	15.884274	59503.535	-40389.715	42227.207	798833.5
He	1.0	5.6254945	14.455453	14.670446	1157.9949	5259.743	817.93097	238411.3
He	1.0	17.169672	0.9869429	15.643859	-1094.3671	-6975.5444	11478.79	6.423733e8
He	1.0	18.933994	14.521177	5.9690394	-41.407993	-1348.9993	5220.2715	1297.3341
He	1.0	20.937237	13.061669	23.303211	12090.208	-17799.162	-11973.711	2.2140026e8
He	1.0	18.207878	11.529357	23.35655	2035.7872	-734.3604	-2161.4224	26.318918
He	1.0	0.5744321	16.28643	22.836195	3061.428	6026.0947	2126.0076	34326.316
He	1.0	23.5021	18.525831	10.022075	-1646.5826	-234.59239	-3115.941	168337.98
He	1.0	12.639067	11.537876	21.456589	-2151.9321	14189.633	17908.432	191438.48
He	1.0	24.074787	23.734127	12.825114	3583.5493	-4583.865	-1708.5378	2.8213637e9
He	1.0	17.936327	19.278625	8.695357	-6108.792	15044.573	29985.916	829931.7
He	1.0	11.6517105	22.155148	16.982384	-7366.754	-2316.3228	2377.4656	214.76372
He	1.0	12.481898	6.408235	11.219982	-4522.8784	7817.817	462.7511	1.0370927e9
He	1.0	3.3789606	11.381488	16.483818	381.87137	8150.439	-1406.6885	-31.8572
He	1.0	15.414988	15.260461	10.25409	4921.122	3618.4448	3678.0515	-257864.25
He	1.0	1.0981299	1.7981468	22.90977	15352.012	-73703.62	52742.06	64108.332
He	1.0	16.73387	3.3412693	5.6833806	2265.2954	-733.48413	5542.018	1222.1537
H	1.0	16.124105	3.6489968	0.23099318	80249.12	819377.1	269222.9	-1.1455492e10
H	1.0	6.973787	12.677827	5.7254996	165505.92	-404374.5	-59563.21	8264.713
H	1.0	15.070685	7.390261	5.024455	-101877.38	465915.44	395673.3	-385284.06
H	1.0	7.879592	18.631907	13.356975	139197.02	67579.375	138012.2	2.7526668e6
H	1.0	21.832958	3.4019063	5.831041	323069.03	475113.75	151924.28	-768956.2
H	1.0	17.97246	24.072744	0.069987044	2483.4258	386099.8	305035.0	-6.1265254e9
H	1.0	20.360472	5.436598	6.594251	488561.6	-7826.2246	-85763.766	-1.5392145e9
H	1.0	19.490498	6.947772	9.419936	-223662.56	71587.75	277121.66	825958.9
H	1.0	20.156345	10.54072	2.277803	-196520.45	234753.31	196274.92	5.6925363e9
H	1.0	4.536402	10.1620655	18.729383	-172581.23	68063.97	319973.53	-3.54841e9
H	1.0	2.7510953	15.800512	23.097206	-493177.1	419125.3	-90203.195	-618497.2
H	1.0	5.203129	3.9165218	8.885927	-125922.42	296501.12	-77689.06	1.4143188e9
H	1.0	4.220332	2.7131205	23.665863	23301.936	-23161.13	-366854.5	-1.5370445e6
H	1.0	6.6395698	11.080863	3.9970577	-488021.16	-412504.1	23956.836	-514450.62
H	1.0	10.635525	1.8180403	19.227154	9922.456	285224.94	-428173.03	-8.5222477e9
H	1.0	2.5397685	5.1649666	15.999365	508189.56	229292.89	41051.945	3.190323e9
H	1.0	2.7688744	13.819114	22.649456	117474.87	-330810.38	-152646.62	8.7289235e8
H	1.0	1.3193054	10.873149	4.5134263	380897.25	-265537.78	-505855.78	-105547.33
H	1.0	16.63255	6.102008	21.118397	-358158.62	-93700.32	357315.56	-1.8666762e9
H	1.0	1.0537252	7.490748	12.111706	246233.47	252362.06	-22455.04	-126653.375
H	1.0	11.458753	20.715797	3.9682276	427842.5	517825.12	-34770.047	-35378.49
H	1.0	11.933037	22.967617	7.152924	151679.27	19513.248	37535.832	-2.8906e9
H	1.0	5.8942413	0.7195783	19.219353	279359.12	17517.914	143658.27	1.8017053e9
H	1.0	18.747469	12.800538	4.1620355	-224119.86	160532.02	194789.11	83917.586
H	1.0	4.9179473	21.29916	21.54981	-2920.8184	78876.87	-321230.56	3.0631485e9
H	1.0	19.988913	18.626942	3.4364924	430824.06	168648.58	188317.55	-951901.7
H	1.0	15.740862	6.980857	2.912117	1231.969	-290305.0	59708.094	574735.44
H	1.0	20.834162	21.25637	13.956552	225993.22	-96098.14	308906.25	6.08884e8
H	1.0	2.4015524	21.741516	13.556002	61325.316	67568.53	363452.94	40348.87
H	1.0	17.41315	6.6590757	1.6712148	107240.92	-120240.74	-196069.02	3.2228596e7
H	1.0	10.644245	18.978378	7.5974693	-240925.45	-87519.03	396134.25	-494962.47
H	1.0	0.4430534	17.133116	13.419948	106600.26	-59344.297	-110629.66	2.0961742e9
H	1.0	2.1518936	0.114704885	22.9773	47243.45	-31220.965	-239523.03	449072.03
H	1.0	21.47343	3.6003368	14.203024	-223875.75	110458.44	-253529.69	186715.16
H	1.0	0.1722586	8.0351925	9.328771	-301359.66	-42045.605	102668.57	1.8408918e9
H	1.0	7.1877174	5.46932	7.354338	-246222.1	226660.81	-199371.19	1.3819825e10
H	1.0	8.020735	1.965937	19.94365	-22001.879	-168676.48	109764.46	-102778.32
H	1.0	20.436419	18.03826	23.993038	233127.8	22332.564	118361.34	-7.8636764e9
H	1.0	16.010895	19.491446	17.73844	-47235.605	-206664.52	30837.303	-1.9470278e8
H	1.0	20.807701	4.6620507	2.1800187	-205750.97	506739.56	25518.393	-6.285541e9
H	1.0	9.965178	13.085325	14.652687	-393371.72	-283071.25	228250.06	-344868.34
H	1.0	1.055957	13.073454	17.72475	275459.28	-386071.12	29021.5	-304240.28
H	1.0	13.255123	16.459614	21.02992	206163.6	558430.25	488081.75	-4.9043036e9
H	1.0	14.495868	17.076712	7.189707	-434557.3	-101656.625	21658.322	892655.3
H	1.0	23.94852	0.04007628	2.9429748	369712.56	257391.92	43489.87	3.5503636e9
H	1.0	15.750091	4.185556	17.761942	-9746.419	171874.83	209483.28	527501.44
H	1.0	20.998549	6.658999	21.041548	-554311.7	-323360.8	-421752.28	762449.1
H	1.0	20.957346	20.892538	2.166668	-142331.67	-597772.8	196749.58	-1.0843018e9
H	1.0	14.577471	16.745687	15.880468	346021.84	-157330.17	292380.34	-2.7826744e9
H	1.0	8.7709255	23.03178	1.5640813	-67923.74	-159216.19	86859.93	-1.3031618e6
H	1.0	3.8042934	11.371841	12.550555	279740.97	-289330.16	-37152.457	-787660.9
H	1.0	0.1750023	17.837667	7.8995657	-32487.367	851997.8	156589.66	-1.7118888e6
H	1.0	19.80411	16.275341	18.506693	-21191.914	-346801.9	-4655.496	2.964787e6
H	1.0	7.489195	6.6038375	16.490849	57283.457	281395.53	157288.53	-1.7776145e9
H	1.0	18.963917	18.01458	12.996812	236454.48	-317962.5	-298361.44	368396.2
H	1.0	0.22990151	23.80952	21.6772	270703.12	-145359.8	151118.56	1.3828628e6
H	1.0	4.3218665	18.060987	2.962317	164572.4	-309062.28	-222534.89	720177.5
H	1.0	3.1854072	15.797475	12.629983	-517471.53	525367.4	-619119.4	-2.1666018e6
H	1.0	13.85457	0.7226839	16.868578	-46559.3	219987.94	119962.664	-1.816685e9
H	1.0	16.980328	17.649107	16.96455	-99613.06	260906.12	108798.734	725650.94
H	1.0	4.5431213	8.914429	15.772009	460491.8	-219224.11	-173750.3	-523052.44
H	1.0	20.460566	16.29621	1.3925921	-111548.625	306214.75	-279050.6	5.0828795e9
H	1.0	19.916615	12.899175	10.700612	-141229.9	-231090.78	-260012.39	-397577.94
H	1.0	23.937534	20.98677	22.159807	-46098.363	-571153.94	115150.695	-549373.94
H	1.0	4.118868	14.739375	5.4958544	115131.12	259007.4	-663206.25	-578739.7
H	1.0	19.265038	14.312391	9.222687	-22737.248	-150280.62	422857.72	1.5539502e9
H	1.0	23.051468	22.005117	12.828169	446916.84	426147.0	138482.11	-1.2777747e10
H	1.0	18.152157	13.2113905	15.102652	-168782.03	392769.94	-240197.48	613428.3
H	1.0	4.4209747	20.9718	3.9447901	-149794.38	-18235.54	54394.934	-707518.44
H	1.0	2.2730052	10.313154	11.8850565	-86940.75	-173188.77	-249029.94	1.6181508e6
H	1.0	17.815153	3.3145802	18.363997	82229.7	-308966.12	318043.1	31421.898
H	1.0	9.551048	21.540997	20.644264	236717.03	-378809.03	118385.3	-3.3826653e8
H	1.0	18.628956	2.065272	16.631472	375901.8	-100073.164	-58210.543	-415461.22
H	1.0	15.141941	10.350008	0.36897996	-85531.12	-135803.08	-657416.56	-1.0983911e6
H	1.0	10.820567	7.426666	12.297386	376500.84	301067.5	-51309.0	-331998.12
H	1.0	18.137913	15.984522	1.5961795	-472668.12	-383181.0	-3852.618	-650533.56
H	1.0	5.2075815	21.757542	16.930725	114869.336	175919.02	405569.56	-1.2402868e9
H	1.0	19.521915	11.220754	5.2607245	138458.39	149348.9	-472745.16	-6.301235e8
H	1.0	22.229727	6.5272846	9.603852	383759.5	-68400.31	-450564.62	-289209.6
H	1.0	8.577705	0.13272159	5.7720733	-398543.38	-70105.4	-45676.477	4.7718643e8
H	1.0	14.457872	7.250134	0.77096164	-351625.78	-217787.75	189623.23	1.1285068e6
H	1.0	13.431995	14.113715	17.185534	-242597.42	-383488.88	-190772.06	-755658.44
H	1.0	1.0591134	17.805843	16.584433	105352.81	31635.824	436834.12	-409753.1
H	1.0	19.915033	19.064077	17.681929	157504.2	-273592.9	-216351.86	-4.148187e9
H	1.0	16.159119	8.002462	8.591283	-574654.2	-236193.17	178796.78	-273382.47
H	1.0	8.618789	22.022959	5.1496577	6764.806	-348039.1	411979.2	6.1217725e9
H	1.0	8.054021	18.84955	16.648361	137073.1	38452.527	-186763.53	-1.0569258e6
H	1.0	5.0431776	14.269577	11.957378	-323267.97	-155208.89	30277.758	790955.0
H	1.0	21.888098	23.270136	13.976788	-346042.22	-209808.47	299412.3	1.2380221e6
H	1.0	5.6377106	4.717301	11.844207	484774.78	-294176.28	-65287.72	-3.5057603e9
H	1.0	21.342123	11.911864	13.785971	-212133.38	-32005.11	-243227.34	1.1833661e9
H	1.0	10.752452	24.012072	20.329708	49225.434	166174.12	460007.34	-2.5764396e9
H	1.0	15.843296	1.2819631	12.94382	413784.8	206616.9	-37692.887	-235442.23
H	1.0	8.590461	4.044169	22.89019	89428.664	288333.28	301355.38	-3.7122616e9
H	1.0	15.901509	3.8620963	10.259056	323330.47	-538320.06	-191101.55	-8.5456215e9
H	1.0	12.621105	1.6083992	2.9251637	402258.9	333164.22	439780.62	-608612.25
H	1.0	7.034044	14.501321	20.911552	336348.47	213926.67	-331577.9	55666.83
H	1.0	11.260744	14.380751	19.2967	50979.438	532398.8	318711.84	-1.9930813e8
H	1.0	5.772116	5.865063	17.403364	-304983.88	-319031.34	330256.38	-403619.25
H	1.0	8.597276	12.174613	16.927647	-127920.93	123058.87	-225947.81	1.6246979e9
H	1.0	23.10355	12.069613	18.943186	26084.049	-181392.42	285981.0	330464.25
H	1.0	16.612553	14.725179	18.824131	313583.0	-145136.38	-312054.72	4.360521e8
H	1.0	17.009783	1.657053	4.166697	-24479.975	-274444.56	-287453.7	-749974.4
H	1.0	14.414522	19.888062	16.607086	317246.22	-129665.12	-57486.69	250291.81
H	1.0	12.370009	18.587563	13.319548	-566223.44	-170362.53	96330.96	-584652.9
H	1.0	15.819271	19.258495	12.877615	35348.902	155069.8	374370.38	-6.320015e8
H	1.0	2.295518	8.363668	2.3807728	145752.94	167135.8	-122351.734	-4.739575e9
H	1.0	10.75774	10.989081	0.9504463	462333.16	11827.967	-473184.84	-3.770027e9
H	1.0	3.4285944	20.53377	19.917112	716172.0	206777.36	78558.07	-965672.4
H	1.0	17.039074	8.868611	14.595913	472382.97	-187491.12	-269511.28	5.5582904e9
H	1.0	0.39294267	16.730394	20.60549	125498.66	286361.8	-176956.27	2.0462972e6
H	1.0	2.1647503	12.131148	10.762562	318610.9	274960.2	110160.02	5.50814e8
H	1.0	18.487043	6.9541416	7.54167	11019.629	161979.64	354107.2	-1.272803e9
H	1.0	21.394709	20.7535	19.452667	158333.92	304673.2	-592801.3	-1.9079058e6
H	1.0	7.3852124	16.807226	4.2855678	-364487.7	214293.3	103472.72	180427.48
H	1.0	19.48852	16.598217	20.401482	-371018.22	-502931.3	184289.11	-2.9929655e6
H	1.0	0.7330813	14.862733	3.492199	12434.539	-191131.88	-229125.98	-2.7224407e9
H	1.0	17.02805	8.320835	6.5582814	168275.8	241446.44	-73127.7	1.7432348e9
H	1.0	0.30515498	12.452228	2.416538	-189060.48	42729.98	55184.855	5.0500214e9
H	1.0	1.5885746	11.067168	18.341711	-59103.766	-343062.7	5477.8916	-516448.9
H	1.0	20.433954	1.5796057	9.00603	-393570.28	-268007.06	-33590.96	-612833.0
H	1.0	21.459162	2.7606401	17.979557	257858.0	-586695.0	503220.0	-7.137514e8
H	1.0	12.425511	12.366281	10.351341	-3154.8042	19254.885	-294089.53	776792.9
H	1.0	5.5173507	9.718409	20.509438	-69312.17	-255197.8	49115.453	-3.504284e7
H	1.0	13.630409	5.023469	21.45238	95081.86	-549086.4	166776.08	-1.036827e9
H	1.0	8.584357	16.10495	0.91054577	-525446.06	134741.36	529860.6	-1.4309132e6
H	1.0	12.066951	22.47417	20.695442	-408993.22	-240622.83	40018.4	-5.1983117e8
H	1.0	15.256318	13.995277	4.113308	-219655.73	735846.44	-381388.78	-2.312733e6
H	1.0	5.6280494	15.520369	22.214108	196627.31	-80921.555	-105908.48	-2.9409705e9
H	1.0	12.033792	8.251458	5.0789523	-221503.66	-32170.188	231327.05	6.661702e9
H	1.0	21.553892	5.1784134	15.366211	-143240.14	113758.06	-248563.2	498248.16
H	1.0	1.6181738	6.355885	13.889318	-436069.7	84557.17	-61926.297	1.971137e9
H	1.0	7.7094517	18.260736	5.837259	209184.84	170245.1	-141757.38	9.627719e9
H	1.0	11.928047	4.345536	20.564375	257541.97	-98370.59	151384.56	-2.200566e9
H	1.0	20.796593	16.892155	11.615654	46954.684	-281748.94	141690.16	740837.5
H	1.0	6.8010254	11.447104	0.6524766	-72311.54	-259067.62	-51373.04	-3.0603622e8
H	1.0	15.425286	23.063107	5.160375	-74799.6	-398877.94	-442061.47	-1.1063592e9
H	1.0	6.267091	10.586693	9.522384	187673.19	182686.81	167943.27	-41777.37
H	1.0	19.208609	23.080196	14.159783	-437386.22	-482984.38	-207108.78	2.4451105e9
H	1.0	14.788576	6.1789384	19.979576	-91474.33	-13037.772	-61210.48	-1.1888746e8
H	1.0	6.146707	22.819963	23.82287	298242.5	166612.47	217928.03	158173.58
H	1.0	8.123334	23.300446	13.596381	12932.776	-484591.16	-527881.3	-837613.1
H	1.0	3.7113922	11.56077	19.912895	342576.44	-630370.75	165207.02	834368.8
H	1.0	13.482881	9.117221	6.40212	241255.23	196914.2	561377.0	-1.7135114e9
H	1.0	14.999397	9.270572	19.652906	199047.81	448823.62	697433.2	-1.7558626e6
H	1.0	23.557165	14.923423	4.968751	108506.93	255143.92	-238034.02	-256412.83
H	1.0	0.25783023	4.789644	17.480892	-54171.2	215964.4	-534742.56	-672108.75
H	1.0	12.124439	13.802787	22.279102	-21991.889	163514.27	-277370.4	1.294936e6
H	1.0	23.568	21.56883	5.6843877	14373.958	87999.164	492959.62	-6.687729e9
H	1.0	1.4019737	2.5225146	4.263524	46239.81	-303704.03	-74380.44	-4.997062e9
H	1.0	23.617552	6.864124	17.391777	-173147.83	472706.5	239196.73	299111.03
H	1.0	4.4226174	9.49784	6.852258	494671.6	165303.31	-74634.29	184227.78
H	1.0	14.095781	20.732204	19.731567	358611.47	148791.3	582443.6	-789080.1
H	1.0	16.39401	11.1988	21.049377	320556.88	-72371.586	-284170.4	860855.94
H	1.0	3.9674826	13.616264	20.282326	-113492.77	-187659.66	292988.1	9.553518e9
H	1.0	21.716106	21.092072	4.5416374	-89704.06	-249865.02	267720.9	4.948812e9
H	1.0	2.431198	5.161395	11.346523	-114011.23	-125316.9	-190953.48	-246097.8
H	1.0	22.884468	15.065021	2.9841912	220399.23	-31073.617	-88811.93	-2.5791867e9
H	1.0	14.35105	10.975385	9.241041	-343317.84	-27937.154	-164985.11	170691.27
H	1.0	8.139367	0.20658441	3.834343	159424.0	221572.6	-178920.75	2.0528841e6
H	1.0	20.477354	22.350958	10.3798065	348147.72	-423243.84	-128532.51	-3.005698e9
H	1.0	20.105486	10.569518	16.906656	-408230.97	472571.25	474172.78	-1.2834722e6
H	1.0	22.667137	15.80706	9.468939	151201.38	155288.95	75341.41	306937.84
H	1.0	4.9384327	3.5835888	13.607081	-267563.25	-246166.22	52691.336	1.1692063e9
H	1.0	12.995114	23.849796	13.215224	-26079.367	-235972.23	-313845.16	243526.83
H	1.0	12.231596	16.094816	0.2781378	228786.0	284854.3	-112823.625	-36036.375
H	1.0	9.337758	18.368273	1.8657231	168682.77	87900.86	19467.775	-1.8136925e9
H	1.0	0.81237566	15.113546	7.9017572	103345.22	115226.35	-250233.44	6.40364e9
H	1.0	12.596101	23.389936	1.5155789	-98681.266	80383.875	123496.01	620913.7
H	1.0	12.644191	11.948782	0.811067	-139719.02	-24136.88	-388027.16	158563.33
H	1.0	17.149708	10.68167	5.1526065	475758.56	-230437.1	-178055.02	-4.569145e9
H	1.0	1.0021254	23.19079	1.6530607	-71689.57	431280.06	-96150.016	-1.3678492e6
H	1.0	14.148688	5.2923884	11.482379	-194837.77	-24075.564	209479.31	594497.4
H	1.0	18.318447	4.8407054	2.958082	-580465.7	46483.035	79413.68	-608.518
H	1.0	15.719424	2.536518	2.1615486	47480.42	193626.55	265034.28	-139378.55
H	1.0	17.010798	11.481705	2.942608	45735.38	-235396.73	230133.92	5.322795e9
H	1.0	22.726576	12.002774	21.669733	145033.77	272498.1	138743.44	4.0124838e9
H	1.0	18.179796	23.503159	3.626787	-161264.28	-260934.42	-608170.06	-511015.94
H	1.0	6.9393253	15.021257	11.074903	-457054.0	112568.29	-427146.8	-7.608491e8
H	1.0	19.623293	4.0983186	19.702333	137870.03	-69762.72	364906.2	348720.2
H	1.0	16.309544	18.013702	7.794778	-142116.44	392111.12	-224919.73	-300917.2
H	1.0	13.905418	19.957432	0.4791807	-151048.44	56180.73	33985.305	9.390819e8
H	1.0	16.245111	22.64094	21.63749	-18454.0	142676.86	-216208.19	541682.6
H	1.0	8.0437975	8.692269	23.14896	-82669.8	-425348.4	-460520.5	-1.6859309e9
H	1.0	23.038626	9.209757	8.337336	-213209.12	-72491.336	-94086.88	-1.6979465e9
H	1.0	23.669117	4.3163147	4.4648843	164807.36	233022.77	-99180.6	-583856.44
H	1.0	21.434975	13.466956	21.176779	581678.6	115349.72	534930.94	-2.4735063e9
H	1.0	13.314991	2.196644	4.875033	279489.5	-235733.7	-13715.671	2.8189071e9
H	1.0	17.862568	19.4025	11.012006	-78848.125	-384086.84	-148928.0	-407567.03
H	1.0	15.930845	20.222115	22.797941	512136.2	-33035.38	-39252.44	-1.2373713e9
H	1.0	4.9481688	12.4260435	14.421171	-77665.234	-3446.5334	520421.22	-2.4676628e9
H	1.0	10.616043	3.3933203	13.190221	269266.0	-38956.426	429210.47	-31909.262
H	1.0	8.590589	11.232243	14.662673	141612.08	-41573.176	-338664.34	-1.2737994e6
H	1.0	12.844451	10.63699	12.228997	-179806.31	19686.877	194194.7	1.8994886e6
H	1.0	9.342827	13.7929735	10.373291	645637.6	-200261.3	17568.197	-7.8105457e9
H	1.0	1.4655004	17.651129	0.54580444	273712.78	135782.25	90502.27	365696.7
H	1.0	20.434416	23.123869	22.25756	350094.56	-64529.3	173291.6	264374.03
H	1.0	5.598483	12.39799	18.942274	330830.66	103692.195	-162210.92	-1.6454561e6
H	1.0	20.534414	8.965977	12.927059	-319657.7	98317.41	226829.97	-1.2500543e9
H	1.0	12.7851715	8.937704	23.438303	116970.33	427497.88	193724.78	-2.7995715e9
H	1.0	0.5694432	3.5004857	22.113722	-370591.12	63442.08	-22374.504	246027.88
H	1.0	0.12559816	2.3416295	2.6225266	-215613.19	466355.78	100886.57	-3.0593874e9
H	1.0	15.454201	14.462321	17.240911	-294895.72	-404113.66	-558500.3	3.3876183e9
H	1.0	21.518576	1.9068457	12.59631	-77054.625	537368.44	-367716.5	-592096.56
H	1.0	17.63848	14.380618	7.681925	169385.14	-26006.299	-150591.22	1.2336678e8
H	1.0	10.701932	11.67559	16.203941	-257355.22	212566.67	218972.23	179953.98
H	1.0	16.580557	20.866179	2.9917514	-337032.28	-392834.6	346056.7	-5.903943e9
H	1.0	11.244817	0.42833307	9.182125	349019.1	67508.22	389355.22	-3.0812618e9
H	1.0	2.70854	6.7150354	7.8818636	-407976.97	-209121.31	-151523.27	-166602.44
H	1.0	12.937961	13.974795	1.0194438	167302.38	-242926.17	-137305.92	2.3774485e6
H	1.0	0.63003355	4.9467454	6.091359	-107374.734	-119218.516	213617.05	559174.8
H	1.0	0.71779954	8.013251	19.343304	381644.78	-166739.72	40234.168	-136508.06
H	1.0	8.1045475	21.90969	8.683534	351610.28	82078.484	-220361.22	324937.4
H	1.0	11.750918	8.846276	21.6663	345263.22	302203.94	-101534.19	470521.56
H	1.0	22.003807	9.316226	10.732281	319939.84	-330219.78	-284816.78	-626847.9
H	1.0	5.9900284	2.0885394	12.107246	-212727.89	306005.44	-66377.836	6.855032e8
H	1.0	18.249304	2.3348465	23.325691	-9560.021	161766.66	-29202.746	1.0419455e6
H	1.0	10.117645	22.537037	7.8092656	443436.84	47762.78	211137.7	1.7511946e6
H	1.0	2.752524	13.399023	2.274345	679081.3	-105787.38	-200513.83	-714684.6
H	1.0	0.5996209	4.17695	1.0128281	116774.81	-340956.7	-27004.096	-283996.7
H	1.0	21.18707	0.1598201	11.016055	-78420.516	-326443.34	456143.28	-4.7827084e7
H	1.0	13.724725	3.0186684	22.66442	427276.2	379241.47	203272.42	-8.541665e9
H	1.0	22.992615	2.8286588	7.636939	-272189.94	40658.094	-191086.73	1.4295889e6
H	1.0	22.919378	14.728859	7.023968	-422862.22	38853.96	-578720.0	-2.5628723e9
H	1.0	2.4730752	4.060815	24.007368	231804.3	-251595.58	-413108.0	-1.6826774e9
H	1.0	19.689291	15.916494	4.483927	291444.6	-266953.5	-22295.393	2.0942642e8
H	1.0	22.213434	0.32137206	23.52051	248880.33	-188015.73	-555041.25	-767160.7
H	1.0	22.696209	12.105256	10.124331	-1605.2183	83208.43	-325645.5	-68117.18
H	1.0	5.454639	18.55449	9.986376	-116472.4	-73984.914	-204277.77	2.4762792e6
H	1.0	18.968163	20.65681	23.838957	-222511.61	-166920.69	303997.2	-1.66156e9
H	1.0	8.966352	19.808712	18.804493	-188464.19	86590.5	-126467.66	-1.0433756e6
H	1.0	18.5537	15.095052	11.580039	-160700.58	-358267.8	-78675.58	-606026.6
H	1.0	20.662668	23.265287	8.094555	99702.02	-118878.43	383976.9	94166.82
H	1.0	0.9479811	17.805384	11.26255	-533481.5	524302.75	413150.03	-685928.3
H	1.0	15.684806	2.4486403	8.76083	-656581.6	-263606.03	64304.527	-5.3606707e9
H	1.0	18.537546	2.226207	1.6152836	-216499.27	400963.97	83799.414	-1.1204737e9
H	1.0	4.71838	10.504374	4.2869554	-257512.67	-343091.2	-443223.75	-5.4859474e9
H	1.0	8.260712	6.946365	14.359731	123161.49	-210467.2	-45874.664	-40114.156
H	1.0	0.14818428	19.570154	16.733091	-601429.56	-523653.66	268486.1	-1.0767673e10
H	1.0	1.1487813	2.58671	16.33938	-146416.02	-352820.25	-93066.3	3.3395347e8
H	1.0	18.468996	0.53126186	21.698563	172444.19	305853.34	-91431.33	3.3945395e8
H	1.0	14.222751	11.267055	16.309814	-380661.06	-58216.67	324668.38	1.0622506e6
H	1.0	19.523085	1.521587	18.61731	438757.12	-115926.44	46682.21	-3.4838227e8
H	1.0	12.310875	17.780323	19.382444	-8194.925	102331.1	76877.055	-509232.38
H	1.0	19.705889	10.178657	19.616585	661590.8	-110883.695	81784.88	-2.9032614e9
H	1.0	22.261114	6.013084	24.068558	-30351.182	-506823.12	-7809.6743	-7.305594e9
H	1.0	16.36572	21.637697	14.809598	-341293.38	-624450.9	-43468.953	-1.6247242e6
H	1.0	9.662152	17.706804	13.037997	-125599.23	-208240.86	65022.117	-692648.0
H	1.0	1.3759862	0.9325342	20.466942	9190.158	161205.9	-177392.95	1.1766901e6
H	1.0	10.672586	1.5360662	10.779845	230015.48	320839.9	183281.55	171100.42
H	1.0	20.071095	1.9162327	21.226791	-120372.02	-50862.805	-508795.7	4.251808e9
H	1.0	15.1185665	10.723561	6.204957	-294429.47	320413.2	-80082.58	-446231.44
H	1.0	12.024695	19.829733	20.311539	223641.12	-69486.805	-71326.75	3.825623e9
H	1.0	4.887597	9.683575	11.657875	-205804.16	30072.215	-147629.89	-1.2914991e9
H	1.0	9.84756	17.690626	8.904922	-152311.39	131515.84	718657.3	1.7377371e9
H	1.0	12.885897	2.9912405	8.042712	190718.88	-60371.55	-18969.22	31824.094
H	1.0	14.034636	10.92951	2.9533465	-422053.12	-239113.11	-3175.853	402310.5
H	1.0	6.3846073	21.674118	7.653796	-52440.22	-95866.04	72841.49	386942.78
H	1.0	10.459586	8.47226	6.6284933	-39420.855	-529070.2	-160634.69	-2.4510326e9
H	1.0	7.5337796	18.272404	23.95604	449418.12	-4015.0198	481762.6	-630028.25
H	1.0	15.293871	0.051591303	19.08461	-269343.8	43735.6	140849.48	-1.981534e9
H	1.0	7.560263	15.79058	14.539398	-202445.73	-203447.7	454627.88	-2.7164234e9
H	1.0	18.345894	13.256109	22.173882	-311158.97	315203.9	-305007.22	3.7340204e9
H	1.0	7.7345915	5.935755	0.75216633	-219457.95	359439.03	-496121.6	34084.598
H	1.0	4.6223164	11.773336	8.9142685	-26512.094	362704.88	107876.7	7.3547526e8
H	1.0	2.3284936	5.8861547	22.67299	457703.53	-62471.594	-96948.914	473733.16
H	1.0	7.6254106	2.100649	13.742282	-3744.0537	6311.125	556257.8	-179743.31
H	1.0	19.991531	22.00795	16.878012	332253.4	12462.04	-39620.777	-6.785514e8
H	1.0	21.253746	12.323694	19.650576	-556695.56	-270160.75	-436126.94	-2.461369e6
H	1.0	12.152409	3.730816	2.861652	80914.65	85962.8	-312766.8	-2.3355922e9
H	1.0	2.3483894	6.1098466	5.662356	84831.4	179323.94	144473.11	-2.3451155e8
H	1.0	8.038981	3.3982303	16.282352	-191053.58	-75744.51	-38949.508	6.29097e9
H	1.0	5.1223345	1.9181038	14.847829	33357.027	501976.2	792797.25	-1.3483846e6
H	1.0	19.531864	6.029348	4.0362134	12794.845	-75128.914	221629.7	-2.729657e9
H	1.0	13.535266	8.62698	11.315991	-31995.607	-499361.3	-152376.23	-822217.1
H	1.0	17.2547	3.4463112	16.092728	569598.2	111785.34	-421151.03	-121725.03
H	1.0	13.684861	16.166624	19.001335	-76706.29	15756.35	310171.44	-926062.3
H	1.0	16.242859	15.955847	7.4090447	-128821.36	-369365.03	-151736.17	-1.9286078e6
H	1.0	10.78555	10.821589	18.89741	287615.78	-247840.3	88214.29	153673.94
H	1.0	4.6993823	19.743347	1.4809552	344225.3	-124994.73	121722.1	-669900.06
H	1.0	8.567688	16.581123	18.329672	-71790.664	-63350.242	-308915.78	867293.4
H	1.0	6.2192774	0.77990997	4.389589	259927.73	272322.7	3267.1504	-5.6018847e9
H	1.0	13.8773365	1.595029	21.222822	175419.9	-55987.004	-394948.4	925297.06
H	1.0	3.2750642	19.143745	15.771655	-124638.07	-35954.234	-110811.0	6.077172e8
H	1.0	20.727997	5.333222	11.48232	-324198.97	-239808.73	91588.64	-6.292006e8
H	1.0	0.21185932	5.971313	8.9809475	-191149.12	-62933.074	365084.66	1.4157697e9
H	1.0	6.24491	8.658892	3.5055053	-551921.94	195525.95	126961.28	1.4687503e9
H	1.0	19.604355	7.932905	18.001957	-557.83685	-194637.81	526204.94	361532.56
H	1.0	0.63221633	0.69792014	5.6383	17609.28	-34705.832	-94066.484	2.4623007e9
H	1.0	2.4906287	12.878521	7.1234026	-648164.06	-46478.78	403941.88	-1.2654375e6
H	1.0	20.40778	12.415673	1.0914745	-77767.69	287812.0	-89096.92	1.3196035e9
H	1.0	5.9558005	20.386707	10.19763	4528.214	-97874.53	-382950.62	-5.492932e9
H	1.0	10.798201	16.424946	19.12481	132930.53	-415726.22	89635.65	-672600.6
H	1.0	12.153153	14.688302	9.16072	-262843.44	270918.0	294076.6	230982.78
H	1.0	22.877842	19.074383	2.5571816	23329.879	-170113.61	47716.0	1.7779683e9
H	1.0	16.391922	5.32221	8.125906	-241017.11	133493.58	131558.44	-8.097391e8
H	1.0	16.17274	23.483795	11.0782585	640945.2	-419288.1	-152828.33	-4.56001e9
H	1.0	22.861752	3.1022198	15.530353	174222.77	375428.16	-159845.2	-7.519716e9
H	1.0	9.257749	0.34954423	7.674892	278902.94	-689504.2	53029.496	-8.3395154e9
H	1.0	8.331847	11.773487	2.7757087	-20107.69	-38759.543	402852.38	2.7239923e9
H	1.0	11.034341	0.6528241	1.0964664	-17860.262	311100.53	-216365.55	-156079.77
H	1.0	14.135981	23.246912	2.881271	42874.26	-342526.16	264023.97	225507.38
H	1.0	0.9993649	14.417391	23.833717	-304146.75	58316.3	-66620.24	1.6326819e9
H	1.0	10.299632	11.793677	20.934834	347691.94	-121588.9	-431018.56	-1.3216148e6
H	1.0	10.567892	14.926617	23.681768	469157.5	-55607.99	270254.97	75119.76
H	1.0	18.10314	21.35486	6.268329	307205.8	447094.03	50688.984	69437.266
H	1.0	21.565018	17.307589	20.28602	-128594.06	-57547.61	423541.5	-780623.6
H	1.0	11.319404	3.3081172	1.1667465	-237010.23	119235.33	-86855.02	-32739.244
H	1.0	23.029768	13.941877	11.926414	380684.22	-40657.035	28817.334	3.5603062e9
H	1.0	6.8665047	16.980577	11.476538	-134208.39	-207606.64	-94176.77	115004.99
H	1.0	5.3830853	20.82017	5.7031403	704619.2	-711838.44	-234239.33	-2.3090682e6
H	1.0	17.048035	11.086806	14.748108	199409.6	-220013.66	-128423.84	-3.635061e9
H	1.0	12.890247	16.692822	17.108812	228411.28	523512.72	274893.78	-219859.3
H	1.0	11.184706	16.507154	9.91699	-280559.9	99211.03	-137758.38	-545910.94
H	1.0	22.352127	1.813486	9.78684	-250299.3	67563.516	154004.73	3.9058358e9
H	1.0	12.174115	16.14009	13.950639	56018.875	-91581.53	7207.3457	1.4339272e9
H	1.0	12.83371	7.191603	19.217617	-74527.305	345951.75	-341210.12	1.3354566e9
H	1.0	6.818962	2.0986254	6.318427	135001.77	68644.58	-48590.41	1.389429e6
H	1.0	15.960829	20.786257	10.20787	66330.12	61811.684	-166145.3	1.2683977e10
H	1.0	4.0851064	17.179611	0.038724978	273759.25	81474.16	-393719.0	-4.823858e9
H	1.0	20.744797	7.237257	4.9851108	764258.94	339195.1	-329577.7	-1.7500529e6
H	1.0	18.870186	1.755054	11.62326	-121199.664	77326.46	-54817.17	304021.78
H	1.0	4.189805	4.840602	6.841262	77728.44	-96064.08	103895.68	5.019389e9
H	1.0	14.96112	16.400755	14.00409	365462.56	-52218.273	-339493.6	-725065.8
H	1.0	9.734422	2.07863	24.029354	115949.8	40464.01	-55033.184	4.8035984e8
H	1.0	19.542246	21.080435	18.966137	-249511.05	-433739.34	179728.53	872324.94
H	1.0	14.560185	10.855814	22.461664	-118992.695	12002.96	-132805.34	1.6790884e6
H	1.0	17.507576	11.16391	11.721057	366974.78	-42016.09	53399.63	3.2051492e9
H	1.0	0.44576067	5.1886744	11.02799	218606.1	-43020.418	-101348.81	1.212981e6
H	1.0	11.676371	5.2596626	18.553991	64584.363	-106653.92	-216721.5	675260.9
H	1.0	13.602665	22.056543	23.436983	-334533.78	440238.84	-110885.18	-3.4684518e9
H	1.0	0.07681295	7.8119144	15.728163	282030.28	-138995.77	-731568.7	-3.4923128e9
H	1.0	23.840357	19.412432	5.338385	-479859.47	191610.7	274386.7	-5.947476e8
H	1.0	7.508902	13.893469	12.792392	-84385.92	-133933.31	-82128.6	3.351741e9
H	1.0	6.34041	16.669561	18.947685	-368852.16	88284.03	-544270.9	4.864788e8
H	1.0	23.691399	10.440939	5.4849524	979307.75	-75105.94	-56938.176	-1.0212406e10
H	1.0	16.54721	17.59597	3.8340786	51718.984	-25071.602	-344232.28	2.5048064e9
H	1.0	17.325483	17.374477	10.893099	-269628.72	-176830.28	-215546.98	2.4350746e9
H	1.0	21.844307	23.627098	4.7248626	194388.9	780745.94	-289378.7	-5.6484777e9
H	1.0	9.343882	14.778908	19.064754	324224.78	448769.25	429578.8	-124933.414
H	1.0	8.182345	4.010266	0.86622965	669.50256	-157422.27	332344.34	9.230383e9
H	1.0	3.6483738	22.723513	0.043651823	109190.42	-369287.6	375471.06	1.4045135e6
H	1.0	14.674004	21.982485	16.208912	-39249.85	256367.33	-457860.62	2.2995062e9
H	1.0	10.191816	10.446118	8.551824	-487695.4	323440.06	-27090.355	11336.675
H	1.0	9.637335	9.011402	17.7473	22737.592	-220726.05	-241772.67	833507.4
H	1.0	23.3046	21.120384	18.965046	231790.31	-181168.61	74222.3	2.0992172e9
H	1.0	21.299765	3.5021708	3.953672	-55400.44	-351617.8	162992.19	-9.70632e8
H	1.0	0.33196694	7.102628	2.7133849	-140357.05	44459.7	-302059.25	2.9955064e7
H	1.0	14.247929	11.540187	14.284994	-4925.9536	-8144.3633	-262654.44	-1.3385549e9
H	1.0	5.4686313	3.9739137	2.3225393	-96416.54	209315.52	490485.5	-2.6950246e9
H	1.0	8.856556	0.041071527	9.990039	-112638.1	291200.94	504742.9	-150323.36
H	1.0	7.7295237	7.8515377	20.226141	-45679.836	-525919.8	258272.92	-2.3821517e9
H	1.0	16.127254	0.43934664	2.724784	-304225.75	116500.07	-174552.84	1.0441534e6
H	1.0	22.943941	6.9424586	11.922128	351808.06	-136592.84	-11844.42	1.4882301e9
H	1.0	7.1836576	19.09441	11.363798	-223934.45	-455422.94	265922.16	-6.9975583e9
H	1.0	22.876389	23.370235	18.74741	-167188.47	-243059.98	-396962.9	6.079322e8
H	1.0	16.680508	15.552412	12.323912	320470.28	-16391.59	521876.78	4.86745e8
H	1.0	6.3323545	6.605573	10.23495	56418.035	-268176.5	95800.9	2.7291215e9
H	1.0	23.340263	12.1998415	16.774506	-305305.03	80506.43	-72638.59	1.1904209e9
H	1.0	2.3484056	6.7163568	18.57018	219652.05	153439.39	-145866.61	3.192588e9
H	1.0	16.00077	15.745237	22.264353	211683.88	471651.53	103680.53	-1.1838429e6
H	1.0	4.080994	15.882117	18.044233	-11473.045	239787.52	-16968.275	634570.56
H	1.0	10.604194	6.2321124	5.1634	63249.773	-144010.36	109599.06	-1.7796732e6
H	1.0	5.0562644	22.124683	2.0825758	-343011.34	259702.9	-447768.1	-4.2089254e9
H	1.0	14.178745	20.406694	13.690687	-563554.0	-394250.28	-75954.44	-1.0499576e6
H	1.0	15.311589	5.359202	0.6438371	-462888.53	174513.98	155511.28	7.458391e8
H	1.0	15.270442	1.6835912	6.2585244	-164797.72	162175.56	-41295.42	1.01608685e9
H	1.0	15.936888	0.6967866	9.552551	151204.2	236109.53	-113434.07	509800.16
H	1.0	16.63894	8.0366955	22.04717	138578.45	-33532.844	-548767.9	-5.656666e9
H	1.0	22.21897	22.861217	6.6892047	-5972.512	-28680.217	167304.22	224742.66
H	1.0	12.129142	5.66024	8.84216	-542593.44	-71765.72	258831.64	-143898.1
H	1.0	12.006602	6.1420207	21.529995	224328.95	-422351.03	343504.34	-886070.25
H	1.0	19.287895	9.67221	23.45484	114473.33	270819.06	485804.12	-91196.125
H	1.0	10.389101	18.509483	21.372593	-33468.44	-436424.97	6664.5117	-3.5463626e9
H	1.0	19.590214	19.151934	1.3005962	-450291.84	-104032.055	58775.523	-85654.55
H	1.0	19.207548	13.545697	19.185831	300164.44	101094.91	-364716.9	1.2287358e6
H	1.0	15.217621	8.266918	16.519629	375877.9	-379262.75	145823.14	-545048.5
H	1.0	16.10166	5.106667	13.4787	411051.4	576.08795	32432.412	-1.2253736e10
H	1.0	12.095843	22.291756	14.843122	468725.25	-582815.4	-66569.93	-755896.75
H	1.0	17.567461	8.234867	4.0976996	-57135.77	-98507.75	-805404.94	-1.2445724e6
H	1.0	19.208698	22.038784	1.9421431	-462602.25	-117215.38	432039.8	1.2823781e9
H	1.0	0.5781929	16.144436	6.0733304	-295700.4	113256.01	5645.5713	276986.38
H	1.0	12.210008	9.866201	8.35736	-203920.92	-429578.28	217967.98	277549.78
H	1.0	13.185912	7.190087	3.661905	50657.156	179812.6	-258840.73	492262.88
H	1.0	8.0449915	11.219203	21.152966	147130.61	-51069.54	-461544.78	-1.0789485e9
H	1.0	5.7362704	16.058332	16.80877	216661.05	-377202.16	422537.88	-2.112054e9
H	1.0	9.755318	18.217234	23.456745	-102547.336	87666.9	-74327.5	-2.6324608e8
H	1.0	22.769766	9.849008	15.451852	32349.514	140258.89	499307.72	295794.75
H	1.0	7.1977057	0.54239595	7.820784	-375135.84	24243.094	36203.113	-1.03293156e6
H	1.0	20.324926	0.33384755	3.4398315	-138353.84	103519.96	-494018.84	-2.8634107e9
H	1.0	19.646133	18.26329	21.651474	-60739.195	-107204.04	-376506.38	-469657.25
H	1.0	8.288225	1.8555797	2.44691	-136538.5	-229418.84	42857.477	-674423.4
H	1.0	14.361433	3.4333234	16.173298	184621.92	327370.03	61373.492	2.0132614e9
H	1.0	5.024968	9.9820385	13.96566	-133598.5	-311240.16	-7143.638	641640.44
H	1.0	8.646435	13.763381	0.75247705	229900.69	-97041.02	89307.94	2.4940436e9
H	1.0	10.122083	7.616203	3.3057125	40801.344	40750.12	-426002.12	-1.4930895e9
H	1.0	18.006819	4.6602006	0.47532094	156170.36	246977.88	-227664.69	-1.6165007e9
H	1.0	11.129604	21.792265	1.8491197	148032.61	-148372.33	423822.75	4.1339392e9
H	1.0	12.1241045	14.30572	15.411024	5726.8506	-30917.69	-104724.766	3.496747e8
H	1.0	7.3773575	4.5700264	18.63132	-10903.887	-322357.75	-215159.42	1.1417137e9
H	1.0	6.9138584	9.746001	15.571935	10469.967	-50875.94	-81129.39	2.121569e9
H	1.0	16.17691	13.454389	20.807272	670084.75	-252852.33	-265702.28	-6.961827e9
H	1.0	13.2446165	5.7890425	2.0297832	66783.06	366605.28	173409.58	-3.9003142e8
H	1.0	10.886038	22.14687	23.81399	-435665.75	-3021.0872	-222001.89	-1.3530868e9
H	1.0	14.761209	13.938941	0.037538804	-222798.94	-274685.97	165625.45	-292392.16
H	1.0	5.682461	19.444204	4.0410233	22676.588	173597.83	410156.06	-308967.6
H	1.0	9.035173	5.41062	2.1730661	512582.88	51724.324	535696.75	-4.039037e9
H	1.0	23.384962	21.769417	14.809699	-382411.88	102635.58	164993.5	5.513158e9
H	1.0	1.7870708	16.254322	2.3886147	-190141.55	27990.775	97443.234	-133885.97
H	1.0	19.533678	11.646514	7.3225083	267547.34	-263595.72	-244450.48	2.877215e8
H	1.0	15.056502	16.234636	0.078392886	209300.06	96102.27	-65827.95	2.2123325e6
H	1.0	9.426596	13.79806	4.0216737	163835.6	-130163.984	27772.5	-18401.053
H	1.0	2.921149	18.052336	21.472569	-373597.4	245866.44	521235.8	-2.0107812e9
H	1.0	19.431187	6.6405444	12.674885	-182791.28	325677.44	300742.1	-1.1644055e9
H	1.0	11.444703	16.92442	5.7131305	-61442.957	526183.5	202085.36	23441.188
H	1.0	19.844742	23.787764	6.3223586	-70681.266	179376.55	334430.66	1.5022525e6
H	1.0	8.436676	16.34774	20.426517	306445.2	75645.58	-134038.34	4.7395814e8
H	1.0	16.541435	6.6171346	23.730328	362807.78	-197477.12	483211.66	-1.4675979e6
H	1.0	8.94686	11.479637	5.369584	-44981.953	-304745.47	-392353.22	-5.3419336e9
H	1.0	6.296817	2.8216264	17.577572	-347596.28	222453.73	14176.671	-8.7792384e8
H	1.0	4.3563666	6.850756	6.5854263	64412.414	-93435.29	378390.8	-244932.2
H	1.0	15.239473	7.4091544	14.806103	-357758.0	-508753.62	187101.27	-2.509369e9
H	1.0	1.2128812	14.207726	12.077159	-361163.3	392615.2	159296.06	-929869.1
H	1.0	21.03915	10.884758	23.225819	-58052.527	-235403.75	-776878.25	-1.9904206e6
H	1.0	14.294335	1.3266927	10.936073	190129.48	84186.484	-102313.42	1.9845736e9
H	1.0	4.497942	19.078794	8.19412	11272.185	-182066.23	-558142.56	521106.2
H	1.0	9.314619	15.743024	9.69304	740903.56	-113885.516	-18738.535	-4.008801e9
H	1.0	2.422508	20.799541	23.383186	-125242.164	27849.055	154771.03	8853.44
H	1.0	8.019014	9.666148	3.2646437	69650.86	244310.25	-546315.44	-1.2706591e6
H	1.0	22.460209	15.30516	23.823452	94651.78	81856.836	-20600.334	6.6311104e8
H	1.0	18.909279	0.99871755	5.081459	-19233.373	46833.746	-650046.1	-1.0815176e10
H	1.0	12.531479	8.729339	1.4675574	-5471.4326	-505298.7	251396.39	625857.0
H	1.0	2.6434982	2.5979757	9.7351	286092.5	2376.5044	-263187.7	-2.6518978e7
H	1.0	3.7884767	18.173895	11.155131	-145519.52	429867.84	-499481.94	1.8071973e8
H	1.0	8.808958	19.63249	6.998947	371244.75	-55110.79	-245902.36	3.264012e9
H	1.0	18.912895	12.569573	12.595623	204252.75	3511.3743	386442.75	1.5889906e9
H	1.0	18.76202	17.683508	5.19361	89458.85	311136.56	-28713.064	-436558.1
H	1.0	7.2974286	20.953785	13.001717	-480521.8	17136.033	92748.92	427188.97
H	1.0	3.7082853	8.06076	21.496899	97394.164	-170102.84	512338.62	-2.9711626e9
H	1.0	10.079619	4.99653	8.418161	140109.69	72159.07	-291779.9	-2.442696e7
H	1.0	20.257172	9.355787	3.9442222	-98220.12	269194.34	-245040.89	-1.5793286e8
H	1.0	3.7773771	14.371425	13.859333	54746.54	-524456.9	666927.75	-9.758891e9
H	1.0	21.313545	1.0574219	6.544871	-106474.75	-78938.1	111080.36	860801.1
H	1.0	5.9383264	5.222833	21.424168	-148816.52	137656.11	-206500.62	-130606.72
H	1.0	19.845695	3.7243855	12.894939	-101423.71	262903.7	-461172.6	1.0254792e9
H	1.0	0.6234602	10.761189	14.3501625	-267865.1	290833.8	115780.97	47478.625
H	1.0	20.954018	11.702057	3.829276	-52508.33	-198963.89	-113230.98	512140.34
H	1.0	9.6577215	1.112193	14.32503	-530579.2	40178.574	30379.492	-1.8821827e9
H	1.0	12.912676	22.543676	18.783466	-103971.41	-625438.9	-260478.8	-2.158996e9
H	1.0	6.7263613	10.46644	5.9759507	247973.8	135147.81	-61945.047	1.6716603e9
H	1.0	2.1590552	10.542323	7.185464	-312617.56	122456.695	-95632.46	-510255.22
H	1.0	5.2369776	22.83054	14.399272	511282.72	154194.48	751935.56	-1.8828501e6
H	1.0	1.7740618	4.2134304	19.014946	246569.73	-444.13547	-61324.37	517872.38
H	1.0	4.553283	5.3740435	3.7372706	-633315.44	251239.4	123383.83	-3.9075005e9
H	1.0	3.2799542	19.019869	0.07475721	373137.6	777662.5	95671.02	1.7747775e9
H	1.0	7.8994656	13.3396435	8.146354	-30182.465	135612.22	-48294.49	999480.94
H	1.0	16.427616	14.767652	15.289099	-518314.34	114113.58	-254064.86	-5.244121e9
H	1.0	20.447975	5.1436863	8.558151	442960.53	803702.4	-93276.266	-1.6814332e6
H	1.0	23.312315	18.21232	23.843758	-21306.418	-143079.3	470054.62	554555.3
H	1.0	23.410955	8.565402	21.74278	-492952.94	-10828.609	136540.31	546577.25
H	1.0	10.138149	6.2451234	17.275675	-124891.8	-2544.019	-384507.72	-2.2715574e9
H	1.0	5.0061955	12.867165	2.2420895	226995.1	1520.5526	-19165.982	240077.67
H	1.0	22.759604	17.58923	5.1858835	-695691.8	58654.406	457157.5	-826526.7
H	1.0	18.307808	16.396519	7.2441106	-199545.9	-314261.1	-380590.2	1.1127101e6
H	1.0	20.670835	9.028971	1.0241221	-174481.88	-356020.44	-84065.11	-182852.7
H	1.0	5.015591	3.3903575	21.82323	-4196.011	220844.2	24360.703	6.3612047e9
H	1.0	3.1368244	9.017305	17.972385	-615162.7	81102.5	-123949.836	2156.578
H	1.0	2.0765865	11.747715	23.88424	-363387.06	592946.44	-210292.05	851225.4
H	1.0	3.3896382	0.6705852	5.7882566	4649.6006	38153.285	35946.137	100991.77
H	1.0	7.152863	14.48692	4.776593	-212589.7	209543.62	-154839.31	101432.77
H	1.0	22.484104	16.969627	1.9892755	63396.543	16864.209	629649.25	2.8865426e9
H	1.0	2.0638924	12.151057	13.060139	-222020.0	176623.05	-37533.473	1.6736989e6
H	1.0	1.6813927	22.815014	18.561342	68069.41	228586.06	567754.8	-1.2894759e6
H	1.0	21.23979	11.546513	11.835566	-4892.1333	32152.328	-180232.92	-31395.379
H	1.0	18.98992	8.213379	2.2372189	-112883.84	138326.16	598792.94	-528151.2
H	1.0	14.190509	20.362703	8.749015	115795.54	507091.22	79604.17	-724987.8
H	1.0	7.4324737	11.34843	19.250729	103930.3	-258608.45	42873.625	194120.25
H	1.0	10.145	6.532324	0.97875273	-280715.78	123364.49	-279332.66	-3.302799e9
H	1.0	23.25172	4.115753	20.652157	-158294.6	120581.9	-467527.12	-5.6153196e9
H	1.0	18.324894	11.443218	20.296913	-496723.1	-307541.3	62534.156	-6.9491553e9
H	1.0	2.4841998	20.27202	10.587065	-44248.727	-21629.523	-443658.25	18268.945
H	1.0	4.7870092	23.352211	22.102734	159489.81	-559280.5	-231007.14	-3.1732365e9
H	1.0	18.346777	21.228062	8.593694	-99485.695	-381780.16	65009.777	-1.2485182e6
H	1.0	6.5845585	18.859358	18.784597	-360634.25	351046.47	-62391.203	526532.3
H	1.0	2.2764292	15.837066	16.48969	47722.598	18825.84	551059.06	-204229.28
H	1.0	14.178646	22.243755	10.942976	-359725.28	199839.56	-131921.03	-1.7867578e9
H	1.0	15.718947	18.15365	21.346798	-358472.78	243787.78	-112315.81	-581072.6
H	1.0	10.450257	10.0808	5.146126	-7941.928	210569.23	204598.83	-6.407538e8
H	1.0	23.423693	8.352782	0.7811955	129591.195	-16928.625	-61058.2	1.0017286e6
H	1.0	3.4093585	19.369781	12.835105	-206321.38	-256322.45	246391.7	-1.5739042e6
H	1.0	6.472856	5.607979	13.328241	296737.47	-127110.055	32922.105	207358.55
H	1.0	14.327015	0.1699655	0.12603037	-26646.8	51542.12	387817.34	2.516544e9
H	1.0	19.092062	6.286058	21.127426	297631.7	-123479.0	-178996.31	-1.5924064e9
H	1.0	19.989311	2.8078916	5.504385	86758.85	-189858.73	-104199.4	4.2876716e9
H	1.0	12.524088	22.017427	12.400246	13458.76	114927.875	-231224.81	-3.9081107e8
H	1.0	20.575794	3.219367	23.074697	-387962.16	-382583.47	-249236.52	-2.5178376e9
H	1.0	17.64222	22.959797	9.768271	293133.44	145037.55	291959.72	-57450.81
H	1.0	23.428507	8.285922	13.843129	-401914.0	208351.33	458986.72	-402261.62
H	1.0	2.4659116	0.62860066	3.6012692	-562281.06	65193.824	-368004.44	-2.274096e9
H	1.0	5.901778	3.8951948	6.9307814	-577824.56	79039.445	-97745.37	-5.85205e9
1000
Lattice="24.079964 24.079964 24.079964 0.0 0.0 0.0 0.0 0.0 0.0" Properties="Particle Type:S:1:Radius:R:1:Position:R:3:Velocity:R:3:Entropy:R:1" 
He	1.0	6.4614043	2.2308328	3.062416	5555.5273	-8875.483	20.923117	1.03848275e6
He	1.0	2.3627832	16.128439	10.333625	2837.9668	-3177.4553	4964.1504	-347900.0
He	1.0	2.302131	3.4204416	7.181126	-513.3219	5518.074	304.90573	-244854.8
He	1.0	1.0495439	18.870579	19.531889	1443.6415	1201.5868	919.2102	241.81543
He	1.0	20.919172	10.573887	21.232794	19332.264	-11544.45	-53648.918	1.1140865e10
He	1.0	4.7125926	12.464504	21.82177	4015.3298	1267.3453	4720.7188	3.1413596e9
He	1.0	2.229282	8.364732	14.204712	-738.7106	-3890.8376	-15409.594	63130.324
He	1.0	16.56096	23.762793	7.320537	2895.124	-653.7577	2016.1995	149.84383
He	1.0	7.4345903	21.36226	22.092464	-8140.693	-4871.4956	-6265.1064	13530.949
He	1.0	23.079302	1.223809	16.5216	-2706.198	-2619.7747	7801.0493	4.373463e7
He	1.0	6.028734	16.55584	6.8997226	4988.311	-3680.3674	24409.924	1.9406264e8
He	1.0	18.528263	22.210009	11.494506	11349.781	-992.5619	-14536.996	979152.2
He	1.0	16.6027	6.314326	11.718665	1519.8776	-10328.909	-8223.912	253122.44
He	1.0	15.616322	5.9976683	9.997974	-1453.1737	9779.805	-2159.9077	9.802696e9
He	1.0	2.9327142	14.2011	10.9869375	-4901.3296	-3140.9182	-1294.2402	209730.62
He	1.0	1.9115632	11.300463	1.9059042	2718.0337	-2631.9446	-1515.409	4.470652e8
He	1.0	8.293729	5.1770163	9.628297	2981.9175	-1300.7893	-3914.8445	10.3261
He	1.0	11.142883	2.6764252	21.442816	1821.5171	-26717.922	22412.936	219931.42
He	1.0	23.277548	16.994875	15.782137	-2155.3562	1407.2596	6294.517	-43712.867
He	1.0	24.03481	10.350867	11.917089	-4953.327	-767.31555	7006.341	-877961.3
He	1.0	14.247236	4.449038	9.336499	-2058.1072	520.1605	-7553.8784	41894.85
He	1.0	9.052363	20.448746	3.1040306	4640.344	936.6251	2888.7349	-143417.12
He	1.0	7.37376	20.290598	5.0685363	-17247.352	125036.74	-33799.06	261172.53
He	1.0	17.901716	14.983463	20.555752	3196.2446	4142.9775	6940.834	90484.54
He	1.0	8.533092	3.3867934	11.91919	497.9924	3551.457	6895.787	1545.7202
He	1.0	0.50691	9.566899	3.1884286	8854.776	2646.0234	1867.8846	1.1849526e9
He	1.0	8.686912	20.430067	0.5789344	-2036.3237	-111.8536	2984.4385	424296.7
He	1.0	18.58084	17.502361	0.45991987	-56373.902	-21296.291	40012.37	6.122137e9
He	1.0	22.230576	22.98627	16.044886	-3026.303	-4769.246	1711.5088	-16248.66
He	1.0	20.421173	13.550636	6.8878975	771.21674	3809.649	-1698.0211	1290.6349
He	1.0	20.629951	7.6843576	10.937726	-7038.393	-5796.0947	3059.8315	-368089.25
He	1.0	21.345333	7.264976	18.820889	-5272.9487	-6317.707	287.69934	9.398045e7
He	1.0	17.276068	13.600383	10.981018	-3250.162	3323.114	3016.5154	145522.89
He	1.0	3.8450432	11.195717	1.3995881	-1447.517	4800.9424	1850.3203	2.5756096e8
He	1.0	15.590204	18.633701	10.015928	2633.3757	1233.5005	-2657.171	318884.1
He	1.0	12.261636	7.872167	14.600726	-2566.9165	-4546.6226	-9173.706	11645.945
He	1.0	9.302399	16.143631	4.4411244	2185.3323	-2021.4517	1165.5292	5.4563603e8
He	1.0	2.4207962	22.356827	3.137767	2277.659	-4677.2104	-5343.647	39874.68
He	1.0	4.912363	18.354853	22.67413	20788.64	19678.422	-25466.984	298266.56
He	1.0	14.165339	4.853658	14.098052	-5034.138	-2170.3262	-7916.477	-1.1230006e6
He	1.0	15.8139515	4.151162	22.19829	3808.0808	-4763.97	-1930.5238	446951.44
He	1.0	15.510512	21.642778	18.591225	-4051.029	-127.98735	2606.97	363.06146
He	1.0	18.556269	21.14996	15.000382	3354.511	3114.5864	-4750.5513	-39.45254
He	1.0	11.660448	7.6537895	8.253691	-1553.2765	-3863.9238	-4832.498	6.7308984e9
He	1.0	13.118829	23.560173	22.238453	952.2533	2098.4749	-3835.665	1.4794453e8
He	1.0	15.697913	18.151634	5.779492	3000.6558	4709.0615	-1027.2711	-56.28
He	1.0	6.684028	23.63948	17.012697	84.673416	-3138.6409	-5533.223	-446433.56
He	1.0	8.619834	22.608686	11.72551	4737.334	-6534.7856	-2105.8384	1.3756595e9
He	1.0	21.918074	19.055162	7.681185	333.00232	3886.3687	-14648.966	-2.4809462e6
He	1.0	14.553738	6.2376623	22.842299	-4419.2666	254.21059	-3233.268	-39.74578
He	1.0	17.336538	8.629006	17.896378	6201.8154	3240.9622	3887.15	-160143.03
He	1.0	11.705129	15.955118	3.753426	-952.54663	5465.638	5007.6714	-455803.62
He	1.0	12.281872	19.981535	8.541806	30961.713	18482.984	20463.357	6.5084375e9
He	1.0	4.3155656	1.9372424	3.7136812	801.7456	1733.2399	-5967.957	-56.765945
He	1.0	6.4300694	7.7710934	17.942608	-3794.772	1563.8651	-5682.416	835814.4
He	1.0	5.987307	2.9498816	0.62425566	784.0735	5021.7607	7381.54	381504.3
He	1.0	14.904898	4.8359137	6.2221465	3166.0132	-5536.478	52.349586	-28.434021
He	1.0	15.509523	21.882456	12.617447	1620.0477	-5069.988	4281.714	-349972.97
He	1.0	18.071863	5.1731234	9.641617	5358.0127	8930.793	-4094.1724	-589342.0
He	1.0	23.596487	18.75881	21.755455	-2819.1118	-11011.762	4294.747	-1.2271721e6
He	1.0	13.370489	19.271885	4.318203	-930.04456	29.517189	-2135.9617	179664.39
He	1.0	3.198648	21.062874	1.8260764	-1829.1285	-801.68225	5949.0933	2.9293278e7
He	1.0	21.952095	0.0036481605	1.8401275	1593.4355	-1933.7081	4390.244	1.0165838e6
He	1.0	12.093005	10.221137	16.402927	-2800.139	6748.906	5092.7505	5839.744
He	1.0	17.613123	22.989014	16.317797	-3910.698	-1477.9084	-2426.921	-44.867992
He	1.0	5.536262	9.746061	23.923622	4992.631	-99.76913	-801.5493	159.25381
He	1.0	18.448084	9.971319	3.5014508	41151.504	-9497.366	-32979.02	1.1152478e6
He	1.0	22.430351	14.285484	17.394333	4056.0981	5748.15	3977.1238	-136.30574
He	1.0	3.273626	16.79506	6.001192	-1614.8475	4532.537	-1666.924	84.52861
He	1.0	10.867668	17.994122	3.351658	35584.348	-12069.241	29868.936	548444.44
He	1.0	16.801647	20.387838	0.7652656	22382.703	3976.8406	45810.133	10763.782
He	1.0	4.1857686	21.960356	9.502866	1815.6741	-4422.04	1710.2261	5.87822
He	1.0	22.585098	6.196355	2.2027237	4929.5938	-1125.5282	3334.3105	-24.163855
He	1.0	22.726458	5.0331635	6.9129987	-1029.7083	2861.2412	6639.3574	28.668781
He	1.0	6.625171	7.987605	8.122338	158.27438	-5469.59	-1265.8828	-209855.69
He	1.0	13.97232	17.846148	11.395712	4809.9746	-3777.7117	-2333.5173	8.964979e6
He	1.0	2.3490877	19.481424	6.938101	1036.493	-668.8282	-4753.2666	38.691513
He	1.0	2.6772723	23.564623	16.92539	32113.3	33618.7	-37064.33	724733.6
He	1.0	23.878471	21.025692	10.518155	-6004.255	7293.9976	4757.2524	330835.4
He	1.0	4.5693564	24.078737	10.696978	540.1291	1689.2439	-880.9803	54.52155
He	1.0	9.802043	5.190126	12.69489	-4207.5166	-3224.8855	-4946.964	-134.58861
He	1.0	23.066519	1.5752747	21.371996	-1657.4728	610.41736	1835.3925	620157.75
He	1.0	13.568049	21.250319	6.985796	711.7708	-613.83856	-6901.7065	-54.974995
He	1.0	2.2460642	3.072132	21.088514	-403.72894	4446.015	-1085.0504	546253.25
He	1.0	17.561846	19.04381	21.567453	4647.958	-3483.1858	5597.618	527676.4
He	1.0	4.394732	8.659735	8.837543	2496.52	536.5878	183.7917	19.491858
He	1.0	16.767275	22.994665	1.4447503	2692.1785	-6812.394	-728.2535	4.334439e8
He	1.0	9.912894	4.160226	17.650417	-4760.9575	-13487.541	-1979.5844	551096.9
He	1.0	18.757814	7.1762366	5.5578957	450.6605	-5361.6475	2778.3162	2.0416756e6
He	1.0	15.0180645	2.0453348	18.969078	-6328.5884	2441.117	-7777.4214	97711.31
He	1.0	16.281437	10.097251	16.338667	-6945.2915	2344.6199	11451.374	1.5077018e9
He	1.0	0.91771257	4.4906626	14.785278	-2770.0479	1368.296	-4515.301	97303.95
He	1.0	4.2149506	23.09714	3.8440201	526.2912	6538.011	4204.499	-163897.55
He	1.0	20.136522	20.79246	6.725309	472.55994	2922.9658	2365.4397	38.304653
He	1.0	23.662868	12.78237	23.514961	3256.7427	9154.439	-2872.8843	-1.1936941e6
He	1.0	9.244463	14.880011	7.7788124	-6019.085	-59258.715	-106134.766	222431.95
He	1.0	22.19202	4.359824	10.056456	2514.3887	1312.1149	896.8691	148.21797
He	1.0	11.732172	24.037262	15.986896	-1515.967	728.8605	-5081.108	-24.78616
He	1.0	9.24323	22.057144	22.580091	26.84017	1656.5939	-4005.145	1.1959227e9
He	1.0	5.500931	3.8210557	15.708924	4339.884	7432.2153	4424.399	8.840908e7
He	1.0	18.103365	23.284273	18.31252	-3223.2576	398.0513	4242.3555	136.18236
He	1.0	6.6778502	14.851845	8.973486	-1493.9056	2427.1526	1665.9683	29.587185
He	1.0	19.758389	10.738992	10.278688	-15695.9	-41724.703	15103.022	1.879101e9
He	1.0	11.107314	23.466095	12.040508	-3418.1775	1974.2067	-7915.291	343284.88
He	1.0	16.61997	19.63819	4.75737	-4309.369	-4003.451	3714.4648	711109.8
He	1.0	1.678212	15.00223	13.932099	-4911.008	-7830.747	39492.2	4.247306e9
He	1.0	12.608269	2.9812486	18.472296	-1379.4503	-3742.1416	-7331.013	-66.0881
He	1.0	10.812267	0.118947625	22.622643	-1417.102	-7381.0864	12.788842	-598908.0
He	1.0	21.019615	14.540769	10.405684	2569.0283	1460.6989	-700.75635	2.0356817e9
He	1.0	4.8027864	0.018268226	7.136729	4292.4087	-1844.7717	9601.884	4.682141e6
He	1.0	5.6337924	8.262142	5.5533705	3451.588	943.0946	-6758.6177	-111.019936
He	1.0	20.516735	2.8425486	1.0387183	139587.78	47209.87	-30616.943	2.3781238e9
He	1.0	8.898922	13.227158	20.336592	-2747.6646	973.1652	-165.21599	547436.9
He	1.0	9.524722	9.865709	20.96896	-2131.163	11871.192	-3375.7334	199578.72
He	1.0	11.538554	20.307755	15.9831	-6216.4844	-3375.1309	1304.6266	140811.1
He	1.0	8.520145	0.47224596	0.11001231	-6364.179	-1221.2052	-8.09562	5.5560525e8
He	1.0	1.6567712	2.090553	18.839796	3900.4722	-58860.098	-9290.393	5.7387066e8
He	1.0	8.197338	11.191311	7.5217	-4993.6143	2783.2373	-8966.345	-246.55807
He	1.0	7.971861	6.9196615	5.909866	-6449.5674	2013.3733	5067.9243	119.0879
He	1.0	18.94524	17.225233	16.125366	-404.23712	1463.172	4344.1934	23.520798
He	1.0	1.7415832	23.735153	10.647071	-3298.2612	-2509.4595	751.7359	-71124.28
He	1.0	12.297287	2.0612185	11.936489	-2703.0579	-3886.7961	852.688	461262.38
He	1.0	17.28493	22.766748	12.948095	-8030.527	2930.7708	10165.75	3.8310266e8
He	1.0	21.950535	21.178635	23.042849	3052.2146	15028.01	19920.566	158819.6
He	1.0	19.952383	4.530356	17.394602	-2253.2925	-1842.4667	4308.051	47106.82
He	1.0	9.146697	2.6605635	21.480724	-6098.1353	6946.808	1114.333	22693.03
He	1.0	1.1840223	1.8236188	0.98510355	-1315.2001	5254.375	5295.437	2.8009905e6
He	1.0	4.691568	21.257643	12.048047	634.8347	1378.8374	-10154.652	-823711.8
He	1.0	19.481186	0.29424796	15.899632	17568.537	-31492.807	-12507.475	5.7434244e7
He	1.0	3.151131	4.528176	13.254397	-4876.4326	-1316.6428	5144.597	1.5666892e6
He	1.0	20.31396	18.92961	10.664301	-36.272694	4853.002	-747.80695	-266837.8
He	1.0	8.918466	4.059364	14.119798	-5327.4263	3433.085	-835.18066	428375.78
He	1.0	8.887928	11.382902	0.40854397	52837.84	-5500.0767	19551.43	1.1085654e6
He	1.0	1.4043577	14.916709	18.636028	-219.6464	2006.3901	-4075.608	2.2605632e9
He	1.0	4.740102	17.849642	15.179045	3283.776	-373.7334	-5301.2695	1.8978108e9
He	1.0	14.614712	12.988547	10.553726	913.34296	-2708.8306	4353.6323	832608.06
He	1.0	15.004472	17.268719	1.9083365	6615.2188	16111.856	20169.756	1.0150383e7
He	1.0	2.1920645	6.9860134	10.213924	-1717.0547	-4537.0728	-5885.7617	25995.707
He	1.0	23.48313	2.8871863	18.958733	3299.1973	-42933.176	-54538.117	2.982892e9
He	1.0	22.81499	1.7535855	0.92551166	-25.57021	-210.58705	9146.203	-805925.9
He	1.0	19.354155	3.292986	8.4921	-25131.814	41631.758	-8494.532	3.1943942e7
He	1.0	6.9747763	14.1732025	23.165161	2957.9375	1425.8303	-2959.7366	1.7499905e6
He	1.0	13.378764	0.18713808	19.891699	38.603374	2067.762	1169.0404	63085.836
He	1.0	10.368689	12.482657	2.3623383	-7481.483	23226.445	24097.324	4.9830994e9
He	1.0	21.772297	17.831331	18.347832	-2858.3242	6522.2134	-27939.713	133774.97
He	1.0	3.3578615	7.804731	4.017109	3549.7354	-3230.5178	4208.5786	1.2971151e9
He	1.0	15.569091	14.447105	6.1156225	5322.568	16023.008	52323.89	563139.56
He	1.0	19.474213	3.5245245	10.570851	8911.708	26495.914	-11963.578	1.269227e6
He	1.0	17.364887	14.336243	4.740939	-11190.84	-5538.8564	-3443.2556	-1.8169184e6
He	1.0	13.490706	18.833199	21.206686	4288.847	1558.9807	941.5245	1.9690962e8
He	1.0	18.745785	10.092079	13.1327305	652.0342	1479.0603	-6539.2017	129724.695
He	1.0	9.859981	12.532332	6.841006	4401.8955	4351.126	534.6437	4.1201264e8
He	1.0	14.053579	16.227571	4.282884	6370.3677	6234.826	2849.6006	-373257.2
He	1.0	7.8663497	1.1527983	17.281164	1543.7494	2242.739	3465.5876	159118.92
He	1.0	5.888869	12.311684	12.432926	-1703.1819	-2026.4923	-717.78894	352.5619
He	1.0	23.00448	0.83507484	14.563151	-5880.7554	-2223.8145	-132.05661	8592.665
He	1.0	10.53597	22.005732	9.747643	-519.5055	1064.7736	-2730.4915	1.5297362e9
He	1.0	8.114712	18.648798	20.660515	-817.92566	5678.4575	-2475.8074	-55.62235
He	1.0	12.69847	9.2084875	18.17301	272.90472	401.6184	575.839	138.45984
He	1.0	4.221219	6.5890293	9.655482	3203.7832	-1677.207	-9424.207	-86898.98
He	1.0	22.188879	15.404384	19.347158	-1782.4523	-4922.214	-1406.635	52.64096
He	1.0	17.87692	11.452819	8.943427	-0.4265282	2912.6511	1537.9597	5.439173e8
He	1.0	7.655587	9.789123	17.908695	1310.571	-1981.9904	-2018.0704	916110.8
He	1.0	4.232815	2.2612393	7.1775713	10685.187	-7599.044	-992.35547	-281.80704
He	1.0	14.525696	6.6606655	8.4216175	-2429.5217	1911.8911	6349.3926	1.1840928e6
He	1.0	2.803066	4.739206	8.9219055	-702.3036	4452.478	1862.2068	388002.78
He	1.0	0.7556936	7.840403	4.8051205	12456.085	18376.086	43438.88	71295.02
He	1.0	11.305409	13.24245	12.550949	-3222.9836	3434.7861	3136.1519	1.2033161e6
He	1.0	22.195168	20.099628	15.143993	-37297.266	-41472.92	5764.311	15823.308
He	1.0	9.656629	14.517668	16.361225	1816.482	-2787.7852	7142.075	796657.06
He	1.0	4.3216643	14.228275	9.327147	274.60635	-5901.2305	-1766.6467	31.948082
He	1.0	10.999421	17.81521	0.9397699	-5306.3687	-2997.4807	-4888.0625	714784.1
He	1.0	14.241235	22.43785	20.851791	-5081.4224	249.20865	-233.1443	643414.56
He	1.0	10.188751	22.32416	13.537044	-805.28125	1047.4517	-117.069855	129.16644
He	1.0	21.031715	16.040668	22.56136	9598.349	3029.529	1704.1466	46070.402
He	1.0	9.915341	19.084381	4.7756133	-910.6162	-1757.6299	-2818.6829	196854.3
He	1.0	22.750626	3.2636285	22.927637	2332.681	1016.5855	4331.0264	9.741495e8
He	1.0	13.295297	13.680224	12.542672	-2324.3257	3827.3425	5067.9517	195714.7
He	1.0	12.938256	18.151999	1.2841159	-2225.0032	4812.425	6863.681	278686.5
He	1.0	9.533674	16.124971	15.109467	7577.7646	5326.116	-11.80653	-212053.03
He	1.0	13.416717	4.403178	4.777083	-1490.2968	3855.3723	645.2998	1.2434201e6
He	1.0	13.023532	14.277191	3.9797678	6892.884	2015.1987	2473.1	-133705.33
He	1.0	21.18185	9.628064	18.283392	-3525.297	2999.502	-8187.7905	35788.727
He	1.0	4.5696197	7.992256	19.324398	-327.05893	1748.7733	-3348.035	728494.44
He	1.0	22.672745	8.089035	5.1096187	-2501.2239	-1039.7843	3301.966	12872.899
He	1.0	17.62099	3.7621806	14.092638	31318.744	53562.543	-143880.2	5.3817303e9
He	1.0	3.9801188	1.8868784	18.315895	-215.9552	2603.6135	3785.4585	102.75927
He	1.0	9.516303	20.689812	11.132019	-8213.518	-7002.8955	1791.7003	-185.16989
He	1.0	0.09809007	15.351498	16.8938	13.380564	3243.0227	-4211.0366	107.2816
He	1.0	21.829529	9.6239395	6.1831627	2631.8503	-5641.4336	-4263.5034	-463959.25
He	1.0	1.7355236	14.356665	20.896698	3214.5027	-3537.6665	-6959.446	330.79373
He	1.0	2.5634868	18.037832	9.328888	-393.2863	660.9228	52.64307	372931.9
He	1.0	17.176126	1.7846943	7.418315	-6054.6724	2728.9863	-638.7465	-38.757393
He	1.0	8.103033	16.695286	7.318435	-852.4121	3622.7478	11297.017	3463.6917
He	1.0	22.38966	9.975148	3.3439183	-1936.2345	6272.3203	623.7738	279747.34
He	1.0	22.18512	15.385897	13.932458	1221.7476	823.3877	-2727.3494	100.21709
He	1.0	21.441435	13.633747	15.666069	-3682.0466	-9411.023	-3246.4895	-906844.6
He	1.0	10.255544	12.2821455	9.476452	3372.368	-11.30939	-1107.3572	1.5169149e6
He	1.0	16.946312	14.456784	0.15722927	1619.609	4078.9963	7444.323	217175.31
He	1.0	6.519825	2.198104	8.73951	-11839.886	-9162.655	-14972.175	360321.06
He	1.0	7.799248	9.252775	10.308303	-2349.285	2840.3743	-1401.5884	23265.111
He	1.0	9.285098	16.687542	22.08625	-9229.265	-46816.367	-40184.652	747470.0
He	1.0	10.542383	1.9993728	3.2291608	-3123.9705	-5359.4414	-3819.3938	-279825.78
He	1.0	15.820737	17.318642	19.04135	-1931.5028	-1455.2568	109.40709	98657.74
He	1.0	20.467436	0.7219687	0.5312047	-2462.9973	-64.75922	-1612.0791	1.8849138e9
He	1.0	4.6000047	15.353422	7.609258	-8844.66	-3521.4194	6604.777	1.1287155e6
He	1.0	13.804511	8.745765	9.349771	3499.9414	-893.0988	263.5647	6.361911e8
He	1.0	6.7805834	23.964167	12.077387	225.74261	2178.3909	4461.5728	-41.761303
He	1.0	3.3762164	0.9907718	15.840644	13690.85	33819.703	-30200.139	1.1044727e9
He	1.0	11.22733	1.213581	5.2502494	5015.3184	-3382.1145	3332.6726	168096.72
He	1.0	2.0574381	8.438383	16.18839	-38060.363	-20280.719	-39940.742	1.3018994e9
He	1.0	5.012124	2.5588665	10.421679	1739.7886	-31871.08	27460.396	1.120963e9
He	1.0	17.307985	2.6477132	12.495761	-11208.333	-34111.46	-56533.375	472143.56
He	1.0	10.621828	18.167461	14.693417	3657.437	-2990.5222	6550.13	2.0222668e9
He	1.0	0.89328444	22.85817	6.300649	-3212.9915	8070.065	1569.0992	6.4925348e7
He	1.0	4.1081314	0.10349659	1.3758793	1951.3253	14400.1045	13221.77	2.3145882e6
He	1.0	9.547952	19.847008	15.790737	657.4507	2612.5906	634.448	7.831659e7
He	1.0	9.187343	13.486123	22.299543	-1856.8916	-2237.951	234.83063	-3412.903
He	1.0	1.6782141	18.551317	5.2972198	358.87628	-1362.8407	3741.1257	96.333954
He	1.0	2.6949532	11.285797	8.98442	12017.673	-12963.2705	-30311.74	81938.56
He	1.0	24.011375	14.564742	20.049047	945.4789	3817.6536	-28664.863	149952.14
He	1.0	2.6087072	10.220456	15.020076	2609.06	1166.8668	-335.43118	439682.47
He	1.0	13.112193	11.366481	6.412761	460.0876	-10149.545	-2303.4297	-816209.4
He	1.0	14.765749	22.004496	1.181579	-534.0118	2116.79	1504.6451	117111.76
He	1.0	22.271082	5.7488923	4.276534	-3083.1057	-3258.7925	2321.443	831026.8
He	1.0	2.0363917	9.378743	21.654392	-4443.358	1485.9036	-6872.9014	329563.97
He	1.0	10.686395	8.996701	23.960335	56.388874	-5853.2783	2414.918	4.149731e9
He	1.0	12.51714	18.626944	10.269238	-286.2209	3848.2117	5895.1733	1597.4843
He	1.0	15.702259	21.262777	6.2622013	1770.1323	11329.568	-11346.187	1.9317194e8
He	1.0	0.49931332	9.7152	16.84979	15478.098	39668.266	25627.285	2.6263322e9
He	1.0	7.381527	3.037982	10.327621	-1706.3046	4591.2607	-477.4188	42938.227
He	1.0	3.5313723	3.507681	17.224903	2236.1753	6523.221	-47.87349	36.62793
He	1.0	21.296854	20.535517	9.476565	5359.017	-23018.916	-8761.86	5.5173786e8
He	1.0	8.910964	7.5841026	8.420631	2694.6414	-4591.194	5617.754	-512374.7
He	1.0	12.69019	20.022354	2.5497794	-2107.6616	4070.6477	-3554.89	5.1685254e8
He	1.0	5.9169865	7.803141	14.489275	-949.1832	-1445.1879	10353.034	1.2451063e8
He	1.0	7.830934	21.432726	19.204496	2712.7651	-1607.8752	2817.4387	1.4141165e9
He	1.0	17.533009	8.431815	23.848383	42852.5	103308.4	20401.713	628862.7
He	1.0	10.356604	5.1969457	22.301256	-4753.889	-875.77997	-1678.0286	151154.58
He	1.0	17.630928	4.882499	19.678461	895.037	-1333.6714	2232.181	1.8221324e9
He	1.0	6.0361547	8.30131	12.559055	3974.1724	2103.1877	-2489.5027	27661.184
He	1.0	6.783989	0.37142208	22.762148	-2140.4045	-847.0438	-509.38013	18.174395
He	1.0	12.587029	15.076478	6.1373754	1164.879	743.26117	1627.8479	144.92612
He	1.0	19.217777	20.397045	21.267166	-2968.1821	27796.404	-2535.8596	67768.98
He	1.0	19.83609	6.6074038	15.45043	6168.4756	1462.0938	1504.6642	2876.4575
He	1.0	0.04773424	21.218124	7.5979366	15770.643	-2527.155	43142.766	396822.56
He	1.0	12.074652	3.445467	10.461409	558.9798	8061.067	3758.457	-124.8619
He	1.0	19.344002	23.991655	20.006239	-6305.259	5693.584	-151.5882	386801.06
He	1.0	5.369337	18.25846	17.312712	-2492.3318	-623.1381	-1973.3464	2.4922168e8
He	1.0	12.0429535	13.567309	7.3885493	-4301.489	-20489.125	-35909.453	209304.95
He	1.0	21.43651	19.951677	21.564524	-759.0443	-20031.48	-23171.592	144158.08
He	1.0	8.762634	8.108648	12.492471	-119.223045	4410.7925	5642.433	71994.36
He	1.0	2.2399874	13.036219	15.854804	-5423.447	-8334.785	5501.5625	-393057.66
He	1.0	5.498258	17.456055	5.207713	-16274.995	-59106.805	27055.123	6.2895686e8
He	1.0	21.054598	15.720588	7.538197	-502.10217	3202.3843	1335.1361	365.7518
He	1.0	17.006668	6.7368093	18.814413	7343.005	-1388.9028	4623.5137	-690974.25
He	1.0	4.2781043	15.880663	1.668776	1432.8324	-61.02161	2160.6018	1.2331181e6
He	1.0	7.9224916	3.8237684	3.6291895	-5523.898	2558.7488	-1395.1375	43.762085
He	1.0	10.956491	3.0293374	6.5797353	4678.541	1037.93	3341.5918	15.166852
He	1.0	19.502289	7.256253	23.53481	-3208.7004	-4596.3374	-888.49524	-9.138648
He	1.0	15.4153185	14.420349	13.534208	7664.333	-5657.2144	-1951.3726	1.4409531e9
He	1.0	9.845071	23.24915	3.569787	-20902.92	-9533.188	-873.82574	2.2464182e9
He	1.0	1.6293845	7.4822006	21.108175	1707.2815	-849.3012	-929.52496	3.308143e9
He	1.0	7.8108916	6.6916623	22.038824	-4128.8345	2626.3516	4871.2427	1.0752422e9
He	1.0	17.478064	10.812702	7.092168	2661.1313	2005.1383	-1736.921	53834.855
He	1.0	22.7721	3.3129315	11.692057	4541.061	-5192.695	-6409.8477	-172.55235
He	1.0	14.435841	8.892889	13.524588	2579.3936	-868.1167	-1503.9038	282904.9
He	1.0	3.8149304	10.238204	22.993862	-2559.4255	1236.7572	1692.7589	-120405.695
He	1.0	20.61275	13.818217	13.23794	-4904.492	-4851.297	-8601.471	343790.4
He	1.0	5.1771407	3.4728053	4.666768	6490.207	5531.4062	-2295.2236	743216.9
He	1.0	16.607952	11.563334	18.739388	3958.7188	-8359.841	-4841.351	3702.4624
He	1.0	20.333055	14.6258545	0.22464709	-27804.967	-119850.03	-58475.105	1.5609494e9
He	1.0	11.860381	4.8030157	12.240718	-525.2082	-3183.0579	6410.932	5.5817695e6
He	1.0	12.1198635	11.86069	14.678677	5943.5713	140.83862	-4967.0894	2.1425475e9
He	1.0	0.16743088	13.277822	13.888788	-2929.662	2256.5154	9.593851	40.521503
He	1.0	0.5735477	23.668985	15.971815	-5699.5005	2745.8486	3708.7185	60.488274
He	1.0	11.726354	23.8551	3.3526819	-30673.57	-82031.68	-13.737224	142191.22
He	1.0	11.574554	10.671835	2.7545912	-2586.1064	-337.91284	-746.9988	44942.754
He	1.0	12.784385	9.965624	20.234905	-876.50134	-10295.124	-6957.553	3.0718528e8
He	1.0	19.13788	13.531458	2.1579905	-2315.7458	-2702.2576	7855.9536	2.444615e8
He	1.0	14.775495	8.332965	22.800537	-2523.8145	6539.965	-2445.3643	3.0045034e8
He	1.0	7.2929106	6.8474593	12.003053	-7150.51	-4819.2695	775.0231	1.3609934e9
He	1.0	6.0695486	7.728263	0.19491497	1921.2195	-5799.3916	1101.3656	4.5940566
He	1.0	21.479078	12.052772	7.998463	4482.2207	-557.38513	9485.499	-0.8404763
He	1.0	23.351803	21.493801	16.900328	-2265.5293	699.26276	4857.9126	2.0699878e6
He	1.0	20.755579	9.731453	8.885279	20372.793	-13911.878	-18589.338	67203.2
He	1.0	5.1694355	8.893888	1.6192476	1288.249	-2457.8672	5235.27	100.22328
He	1.0	18.826698	14.167429	16.915705	-3326.9783	15723.571	-6639.2397	1.7280296e8
He	1.0	9.592332	8.166428	22.013882	5037.8267	-11712.398	9198.818	285399.88
He	1.0	15.773822	12.476804	12.872282	-6373.2383	-6936.949	-2348.6387	-977410.7
He	1.0	12.503215	18.442352	23.175722	-8655.894	3129.7393	1202.5297	-357396.8
He	1.0	5.352965	16.092257	3.6444378	5781.6807	-13792.952	-1498.7068	5.854208e8
He	1.0	22.2267	12.571804	5.869137	2523.194	-917.92474	-2733.7605	274547.25
He	1.0	5.621839	3.0840633	19.63358	-2632.8887	-4364.0693	-3270.2466	248011.33
He	1.0	12.81159	1.6963848	0.12967224	-3860.5193	-7711.13	4291.8286	1.3358244e9
He	1.0	15.951189	0.084230065	17.110626	4970.6006	-1527.8652	3017.7043	-168776.17
He	1.0	1.0330658	21.094637	4.103993	1712.2877	1361.2545	-3194.1404	170203.47
He	1.0	21.610447	18.280258	13.858894	-2550.5354	1668.9795	6211.632	317067.47
He	1.0	18.994762	0.080414906	8.848774	-206.96864	4736.9917	2760.2253	1.4868877e9
He	1.0	11.897637	4.813897	23.66577	6444.31	31756.217	-35165.137	3.7344604e9
He	1.0	10.308651	6.4194236	19.848722	741.29553	3664.8933	1163.5455	16243.552
He	1.0	5.978373	6.4032965	2.5708938	22387.094	12392.301	-15702.954	130511.414
He	1.0	6.6913395	22.59095	4.63351	5087.5454	5893.164	-2742.2788	116.75539
He	1.0	2.8998065	8.803983	10.633404	-280.37878	12074.447	-4493.417	1.3680403e9
He	1.0	22.992092	5.7657924	22.145197	-2284.2058	395.94482	-5326.7383	28.241316
He	1.0	15.345264	1.9083937	23.38927	10960.58	6697.028	2315.1814	932873.3
He	1.0	10.708997	18.345707	11.1364565	2034.3735	-165.7296	-1895.1375	13.411475
He	1.0	16.358202	12.87189	9.23284	-2265.4553	7848.893	2008.7473	-137538.03
He	1.0	2.6155033	23.918665	12.675532	-399.6439	2739.8455	-1948.3062	191.42877
He	1.0	1.2958523	19.961454	14.535495	764.4513	-282.0512	-3044.649	-5207.176
He	1.0	19.5782	9.592814	7.0841765	11792.249	-2059.251	-662.8669	-172.70699
He	1.0	13.449814	12.067569	19.709835	10811.108	5151.057	-10307.2295	3.1926128e7
He	1.0	0.67436725	12.645919	20.702711	6583.783	1601.6418	3237.922	-123.819466
He	1.0	17.965433	4.4732466	6.925892	-4620.8486	-4170.176	1163.9636	-340593.88
He	1.0	3.262782	7.591735	12.355221	7733.189	3717.0605	1709.797	5.2835987e8
He	1.0	23.721552	16.17284	11.748017	-16716.707	-8598.409	-17050.395	970689.1
He	1.0	20.483154	18.292633	6.356781	-1642.1815	1428.3541	2175.13	-48601.06
He	1.0	0.78021896	1.8317559	8.851014	2506.9866	6380.287	-3090.8765	-6.4584947
He	1.0	5.826172	22.26246	19.044596	-2477.1284	4375.3765	-2170.3376	-36295.24
He	1.0	8.675361	2.0023656	4.721997	-2061.653	6531.4385	3513.6284	1.16090616e8
He	1.0	15.219543	12.202937	1.5796443	852.2521	-2693.5586	3958.699	-31.5632
He	1.0	15.3457155	4.095749	3.5194445	741.30426	-209.66855	-77.51818	105434.664
He	1.0	0.5383697	10.019867	22.810995	-3102.6477	5419.521	3232.674	1.3824358e6
He	1.0	4.8090825	16.570429	10.249257	-4219.1846	-706.1895	-3995.0364	1.7634415e6
He	1.0	8.487904	4.835673	20.939201	-1417.3402	16213.498	2732.44	332344.2
He	1.0	19.034885	12.289428	17.544136	-40483.31	48923.05	21258.424	1.0854875e6
He	1.0	19.279226	15.27587	21.99557	-18824.197	-5150.017	-6140.4263	2.350973e8
He	1.0	19.773605	16.412127	14.154151	347.0094	6224.9116	4857.4585	9.576421
He	1.0	1.5541338	5.277515	3.7142553	58391.363	34675.984	-18465.49	7.8757464e7
He	1.0	4.854044	5.1005893	19.205755	-907.96497	-359.98065	-924.45416	33.567825
He	1.0	11.738699	4.994649	6.1746993	840.75256	5140.1284	-6346.2305	877806.06
He	1.0	23.837193	14.214589	21.999594	-8282.939	-4913.3477	32012.191	7.19104e8
He	1.0	23.787586	1.4716792	12.009746	2612.78	-3263.6912	-5504.455	9.936185e7
He	1.0	23.69528	0.31313992	9.53306	20768.918	-3042.0867	18098.295	3.597806e7
He	1.0	0.8190285	13.2213545	9.409718	2837.779	-86.64192	5426.1377	-88.01803
He	1.0	6.9871144	10.009078	12.038178	-5326.7173	6172.1914	1663.2354	107.69284
He	1.0	5.07161	16.620674	13.462939	-4304.631	-478.08273	-332.2169	216.03223
He	1.0	9.8024645	8.367679	19.678566	-2854.7744	-15617.591	46679.473	1.02636474e9
He	1.0	3.2743266	0.37850702	20.209124	161.40445	1723.8524	275.19974	6.945149e8
He	1.0	0.7519864	10.154137	0.72933114	8085.78	-3820.9888	3157.0923	-865523.6
He	1.0	20.468105	22.319054	20.333952	3137.299	-596.0894	-2113.3455	8.1148365e8
He	1.0	6.9561787	3.1181388	22.289425	3248.9597	426.659	-2712.3877	813173.9
He	1.0	22.491947	19.923418	11.765783	-1602.7848	-733.4207	-860.1278	81.71675
He	1.0	13.336905	18.842892	15.188478	451.72845	1633.5612	-2374.7314	958410.9
He	1.0	20.812368	2.8450675	15.958557	1690.9598	4538.1763	12431.108	3.9409366e8
He	1.0	11.690808	0.05305759	18.508268	30808.492	-46604.344	-22166.0	7.5339866e8
He	1.0	14.784533	19.167025	2.7751765	-3765.942	-2809.4197	1649.5767	84.08267
He	1.0	17.789053	6.347051	13.905418	-5937.32	1398.1335	1685.4307	8.41751e9
He	1.0	9.288754	3.5262587	19.6627	3505.7825	-9624.012	-8694.781	41342.7
He	1.0	6.5876975	23.233355	20.779243	3589.8325	10099.544	-1622.8102	-134.80072
He	1.0	10.939474	2.0899198	17.193272	-255.54802	-8125.194	-984.54913	7.646992
He	1.0	19.615967	20.16589	12.572569	721.8914	2156.7764	1881.2798	80.50784
He	1.0	12.013144	21.262266	22.319857	-44831.008	-12043.926	-45220.0	176293.83
He	1.0	22.895973	0.7636526	7.7677526	27070.238	-4678.556	7888.043	54090.266
He	1.0	14.273125	14.066203	8.902429	3909.1772	-4361.4775	1245.8384	2.8409863
He	1.0	11.441524	2.9744537	15.250877	-848.2647	1216.283	3842.798	40.675156
He	1.0	10.003479	11.687638	22.875963	14757.283	9348.333	-33615.867	6.339283e8
He	1.0	12.457973	12.033169	17.852983	-2319.0312	6519.918	2641.0288	-41.8697
He	1.0	23.714615	6.0827627	19.467049	-4888.3413	-549.9378	-5089.3496	-36.919968
He	1.0	16.926912	21.890257	4.628087	-4556.025	3541.8193	-7559.257	1.466289e9
He	1.0	20.628017	6.840215	2.3774164	-1783.4023	20297.86	3310.188	1.2123045e10
He	1.0	12.776471	0.9235906	7.7127934	1070.2344	7.618854	2771.6516	116014.9
He	1.0	14.781008	14.372411	2.2449903	-4724.4785	7130.869	9083.475	195047.94
He	1.0	15.0813055	15.266101	20.173117	-2028.0485	-1109.0657	5787.3037	72583.62
He	1.0	10.1182995	21.740292	18.342194	-2148.025	-1362.7261	-4847.6714	69539.75
He	1.0	18.04609	17.322731	22.630219	700.10254	-2760.4353	-25354.492	5.941353e8
He	1.0	14.322934	10.49448	18.239285	-5557.5728	1468.1779	-2476.8748	2.416847e9
He	1.0	21.325706	0.8325306	19.133177	-2909.604	-4018.5918	-4187.4214	1.4528022e7
He	1.0	18.235893	7.701572	15.942452	-3847.5112	9421.747	7815.3643	3.3031056e7
He	1.0	18.063866	14.543807	13.503488	-4078.3257	2951.6445	-395.32266	1.7183547e9
He	1.0	11.825838	15.020501	11.626888	-2787.6443	4068.8752	315.92288	-169860.2
He	1.0	15.550599	18.705908	15.323322	3119.0051	-2489.1545	9194.089	7.466734e8
He	1.0	13.0852785	8.12672	16.401962	3626.1013	3237.4407	12844.016	7.136858e7
He	1.0	1.907351	3.252045	2.337211	1359.3702	1722.6416	3643.6357	12613.951
He	1.0	8.773262	9.094643	14.590836	51089.062	-65334.293	-22599.082	3.0793446e8
He	1.0	7.0367327	10.495355	22.765457	1529.9415	-25084.135	-61282.77	6.4829087e9
He	1.0	5.7741456	17.71087	0.9988593	44150.48	19484.633	29718.562	3.6047504e8
He	1.0	6.583471	0.4935094	14.865804	-3018.659	5276.99	766.1711	2.678556e6
He	1.0	16.245422	0.5435186	22.142597	3764.9355	-4497.886	-7880.907	1.5253359e9
He	1.0	12.536663	17.79583	7.5290456	-75558.26	26624.098	16802.73	4.402197e9
He	1.0	2.4132745	11.9791	21.552763	-7826.5635	-59005.05	-35202.895	3.5185267e9
He	1.0	24.033178	10.970657	8.903858	5862.803	-660.0922	-143.04958	9.5040723e8
He	1.0	0.106212184	12.034092	6.8578563	4831.016	2612.4624	5712.1567	-246347.42
He	1.0	10.656013	20.012863	0.7605546	5366.8125	895.62866	2458.864	77560.52
He	1.0	6.259269	15.78652	0.16023497	-62.579456	-4805.2217	2038.7368	260759.2
He	1.0	13.982544	6.1335454	15.981956	-7660.5234	-9565.076	15375.568	210778.95
He	1.0	18.33214	4.3072133	4.9660177	-2031.304	3733.476	-1465.5483	24.379807
He	1.0	18.599516	4.605768	22.479143	5102.616	-9204.012	-2737.744	561480.6
He	1.0	6.113564	22.839514	10.413458	3086.715	-3612.7002	-3027.2073	26.557669
He	1.0	4.068606	1.4829781	12.003219	775.7737	-5883.735	-2151.5283	1.08790536e8
He	1.0	17.933786	9.616846	21.19234	-12383.052	-57020.312	18929.225	492144.03
He	1.0	4.5672784	16.364092	20.593262	198.6824	4559.598	-8626.726	1.4500485e7
He	1.0	2.2289631	22.684372	7.9347115	2068.0845	-2472.7012	37.413223	209.57814
He	1.0	11.0089655	9.224561	13.632998	-4448.536	6837.844	-1282.0267	-660522.6
He	1.0	3.745658	7.9823647	23.579512	5236.1143	7410.653	839.68567	-161.04109
He	1.0	19.92884	18.568407	19.648218	2719.7878	-3246.6377	729.7136	1.372278e9
He	1.0	2.6548808	21.773657	16.056292	-1276.283	-16480.605	-7763.7197	67588.195
He	1.0	23.756298	10.229638	20.16618	-9855.43	6959.2764	3593.5845	-993257.25
He	1.0	6.782151	18.271145	7.715566	-595.0641	1191.4299	2005.129	845692.44
He	1.0	20.454336	16.247028	9.505227	-1230.6128	1938.568	-269.6635	8.568193e6
He	1.0	14.988177	19.587347	7.0793495	-2674.5525	-13680.925	5711.7534	67363.2
He	1.0	22.216135	4.8055506	17.502306	-1135.879	-3713.7756	-261.36884	6.655676e8
He	1.0	16.129803	18.267454	23.449776	-2293.9114	-463.4643	6905.1504	-620099.7
He	1.0	5.6645904	20.19899	14.567755	-594.7639	-58.602764	647.8821	92.4136
He	1.0	16.27816	8.086206	12.582397	-2189.6873	8992.891	-768.0707	1250.0751
He	1.0	19.556475	2.5665913	3.3498268	-2103.1438	-2730.5925	8461.093	5.2361824e8
He	1.0	0.5368414	19.787159	8.897399	3874.974	-4018.8896	12143.132	4.076335e8
He	1.0	6.6406317	11.553584	16.794659	-354.22287	-1240.8356	-3849.5261	-25.421774
He	1.0	0.49297565	20.159594	1.5291929	6512.5923	2569.8435	-9009.7295	-96.96595
He	1.0	22.501936	13.379902	1.8690655	5968.714	8166.9854	1267.0048	3.8656118e9
He	1.0	8.273516	11.404113	11.15031	7380.6606	408.77826	-2666.4683	-130.10327
He	1.0	0.658511	7.648084	23.289085	8253.06	-12177.366	389.86826	259.1638
He	1.0	6.56433	19.640879	21.524364	205.51392	3318.5908	3236.767	17.290007
He	1.0	8.448012	5.0334272	5.3669415	1796.9342	4027.1199	2617.874	772627.94
He	1.0	17.661045	1.9627124	9.392948	6567.626	-2664.1003	1631.7333	86.28752
He	1.0	13.634356	4.0279493	0.6104006	1052.5842	1195.0146	3517.5183	93.90312
He	1.0	14.798798	22.83668	14.248834	11932.429	1581.4893	11217.359	310373.0
He	1.0	8.094593	18.689749	9.386585	1643.3134	2213.7773	-48.62343	276266.97
He	1.0	8.092474	7.464292	2.4094493	-71494.86	-6494.359	-37011.223	3.2865966e9
He	1.0	16.629932	9.696191	10.465886	-1062.0167	-6513.559	-7219.3726	117.25854
He	1.0	10.431999	23.260637	5.506799	4323.7485	-1662.085	-3012.2544	1.4034665e9
He	1.0	23.181181	4.687568	13.711097	4537.5293	-1866.3353	-5775.913	1.0135049e7
He	1.0	3.6162627	11.170586	5.7950926	5945.6206	-2708.9773	1905.9379	36360.54
He	1.0	21.673143	15.877537	4.991691	2060.293	-7596.8037	3449.3916	2.8981896e9
He	1.0	10.450814	15.79851	1.6141847	-2580.1794	-2201.575	-469.69806	-2.2327614
He	1.0	21.259113	16.680708	16.514753	1334.0168	-4019.7734	-4954.9424	34.207127
He	1.0	17.673094	3.0227509	21.216223	1515.8784	3724.494	-683.51556	-7.278444
He	1.0	5.133624	13.069231	5.0691504	284.99448	-1562.1613	3372.8684	4.0679508e9
He	1.0	21.274405	22.740385	0.20584416	-8479.054	-29271.111	14143.5205	2.5531284e7
He	1.0	21.689543	19.340763	0.9440524	1341.2675	5192.5825	2610.4563	4.008702e7
He	1.0	3.6827724	22.54134	19.811155	666.5701	33140.203	-668.76074	225799.38
He	1.0	13.181243	6.328466	5.667412	491.22934	-6034.219	7106.4253	-401420.22
He	1.0	9.384959	14.932705	13.468609	-8271.505	960.59216	5379.5635	-747985.3
He	1.0	4.7378626	1.0859283	9.016692	1642.581	115.697876	2033.7086	99.18607
He	1.0	8.501609	8.956368	5.8760567	-1330.2944	4415.071	6267.214	34.1246
He	1.0	18.205902	21.820854	22.263393	-6265.1484	1512.736	2689.5952	6.614688e8
He	1.0	11.862893	20.541632	10.567854	1592.7532	-2004.6475	-3411.3872	279478.7
He	1.0	7.0050144	18.560736	2.4040916	488.91223	5340.841	1132.7329	61.62913
He	1.0	16.256079	12.8169155	16.176416	-10374.554	81.75168	1711.9814	8884.8955
He	1.0	22.584408	11.33807	1.0697415	2157.786	-4995.458	204.43713	320326.34
He	1.0	15.484257	2.6604507	14.414932	2780.6367	838.4476	322.9864	-66744.88
He	1.0	3.610051	6.4715466	14.165416	1540.6218	-1168.0461	9887.009	-563034.44
He	1.0	14.232783	14.120077	21.689594	5692.3135	3474.4988	-4910.1797	173294.84
He	1.0	17.40391	10.090075	1.1567452	-1550.1598	-3347.3901	2354.4536	99169.52
He	1.0	4.5050626	18.225248	19.118628	-4629.9644	2166.271	-10570.052	1759.4655
He	1.0	19.298496	20.647448	4.308955	806.64154	-824.8813	-2734.9087	29226.57
He	1.0	23.93748	12.874303	4.441591	-27607.807	17921.807	69778.73	43549.88
He	1.0	7.2184734	14.951078	6.907968	-1569.4973	-10344.884	4667.9604	7158.01
He	1.0	4.1078596	22.753649	5.830244	-6807.4946	3077.9514	3708.833	343.1545
He	1.0	4.9221535	6.4981456	12.573781	-4826.2935	688.95544	-544.68164	5.0090346e8
He	1.0	14.91726	22.306162	8.114104	13451.155	41890.742	-17365.268	301615.5
He	1.0	13.474108	1.8120608	15.106899	2995.912	-4815.3066	2190.5457	280028.62
He	1.0	16.767775	1.3271047	0.9621167	22791.518	-30781.893	-35606.594	386631.6
He	1.0	18.374365	6.177841	17.300886	7223.569	6101.785	-7605.289	-850653.4
He	1.0	18.390598	16.01361	9.780384	-4497.9077	30208.28	-51371.242	88692.766
He	1.0	14.204452	18.741665	18.871538	-4538.746	-1351.8308	-1143.7275	58619.277
He	1.0	15.11681	9.449384	4.399397	-6693.251	5869.885	1811.4554	-836380.8
He	1.0	17.934938	4.8046556	12.010641	-3015.7727	9336.51	447.14206	-204.72295
He	1.0	9.7665	17.688831	16.752031	22445.715	7809.611	-16417.174	9.375409e9
He	1.0	17.160564	20.773163	13.144714	-2374.0269	-2775.7808	-11513.364	3.6249702e9
He	1.0	11.775534	6.9846783	23.699827	-410.29526	-3190.5845	5568.564	117.547485
He	1.0	0.6610854	7.2784576	6.886909	-1076.4476	-1680.036	-2136.8137	613535.94
He	1.0	4.149962	6.8709445	16.841183	566.1196	3894.3127	968.04846	1.0704377e8
He	1.0	8.391695	20.908432	17.198673	-750.8744	-3287.8289	159.19466	263.15018
He	1.0	16.986828	0.9639564	20.0747	-2943.844	-149.58638	1142.5426	4.157036e9
He	1.0	2.6043384	4.0101533	5.199625	2876.258	-794.30396	-719.1821	522919.8
He	1.0	4.591892	12.278935	10.851489	24713.594	31511.662	-68673.05	311466.62
He	1.0	10.56421	5.025346	3.7339854	-7527.3296	23288.404	31131.82	1.6079658e6
He	1.0	7.899374	13.364659	14.991759	3845.9597	6029.2686	-415.44788	73.398445
He	1.0	6.221965	14.576443	18.77389	-23966.533	-4932.3516	-53866.617	3.7950705e9
He	1.0	10.053737	3.4433303	4.8444357	2207.0117	-3359.815	-8213.8	4037.3564
He	1.0	6.9500055	14.708259	1.800702	-1551.9169	782.8583	-667.6442	981752.0
He	1.0	6.619006	17.404926	22.25945	14006.91	-3895.7205	-2261.2153	19188.455
He	1.0	21.438606	7.5837994	23.133423	-3152.9375	5181.423	-108.46253	3.6418595e8
He	1.0	18.572344	18.4336	7.0119324	-3711.777	2869.2253	-1069.9369	7.160423e7
He	1.0	10.702869	20.128988	14.098521	-6779.0024	-8806.477	-5693.552	-313.6958
He	1.0	0.9647374	3.6858187	12.950973	-3215.401	-3503.2002	1123.8856	-14.1785345
He	1.0	19.72413	1.7701666	14.451831	175.31512	-6064.691	7415.0205	-116.072365
He	1.0	17.541761	21.113373	17.377975	2408.021	-25.262358	-1629.2812	437904.6
He	1.0	23.134045	21.537928	2.311268	3759.2483	2100.5535	-5309.6562	984891.9
He	1.0	12.902647	3.1120882	13.555966	3626.2249	-1068.2384	-2376.8774	-133426.88
He	1.0	2.9847775	13.844757	17.78587	1555.1696	-3286.9504	-1172.6855	241348.42
He	1.0	0.3560136	17.805336	2.685062	-3911.6147	926.0471	-704.0961	51963.797
He	1.0	18.401573	9.989957	15.96506	26686.902	-25516.277	19371.086	1.7237921e6
He	1.0	5.6525683	14.455453	14.684651	4274.693	-1114.5662	-5793.723	181586.86
He	1.0	17.127726	0.95767725	15.616182	-79880.44	-56634.49	-63744.04	1.8950499e9
He	1.0	18.933994	14.521177	5.969398	2817.4275	1128.169	2243.7407	761.0683
He	1.0	20.937237	13.0216055	23.304365	17583.562	-21884.14	-12580.273	8.360455e8
He	1.0	18.207878	11.529357	23.35655	3672.8208	1614.0492	-189.40973	-16.807487
He	1.0	0.57768685	16.28643	22.836195	4937.8184	531.85913	170.0704	63.285526
He	1.0	23.5021	18.525831	10.021646	-3918.1733	1696.2612	-6310.163	7259.5503
He	1.0	12.639067	11.537884	21.456589	-5271.203	1356.3517	10399.745	46626.848
He	1.0	0.013698348	23.752228	12.826313	3264.4734	-1401.9968	-552.95734	7.924212e8
He	1.0	17.936327	19.277802	8.709388	-10004.257	1181.6329	2420.9514	48479.5
He	1.0	11.6517105	22.155148	16.982384	-2357.1558	2352.7334	-6671.3765	24.249134
He	1.0	12.481898	6.404565	11.219982	2423.5186	2829.9404	1383.552	4.4369936e7
He	1.0	3.3741689	11.381488	16.483818	-7416.264	-11212.344	-2717.1724	-294.9796
He	1.0	15.414988	15.260461	10.25409	-78.65229	8464.267	2359.0454	-324944.5
He	1.0	1.0428429	1.8800344	22.917294	-6314.8813	-1777.3447	-7628.434	1.01974475e6
He	1.0	16.73387	3.3412127	5.6834955	9381.057	-181.22026	4519.5537	-173.03969
H	1.0	16.157986	3.4838526	0.4191316	-443095.12	233210.55	118028.91	2.1065311e9
H	1.0	7.1300488	12.667621	5.7864447	163588.14	123660.45	229236.62	141932.64
H	1.0	15.281855	7.381788	4.8288994	-720871.56	-615191.25	-225225.67	-1.3933224e6
H	1.0	7.7232733	18.453024	13.357557	-281304.25	598803.2	-31837.766	-775982.75
H	1.0	22.011759	3.3669565	5.759655	348607.88	-74292.27	17104.346	2.1298098e6
H	1.0	17.932236	23.985052	0.060511164	-79319.766	144569.2	214886.58	1.5570693e9
H	1.0	20.17051	5.4697213	6.583125	-147026.34	-675747.94	-76468.79	5.723865e9
H	1.0	19.38169	6.7541656	9.489722	-7487.7056	228653.1	-133043.52	-818595.56
H	1.0	19.976654	10.508284	2.3292596	-2877.8752	101534.89	-189903.12	2.9887212e9
H	1.0	4.7299075	10.156386	18.996885	613476.5	-827213.06	63769.902	-1.0779542e10
H	1.0	2.5655024	15.65188	23.042555	84062.21	-42842.945	493986.66	-65664.984
H	1.0	4.990702	3.8435123	8.902382	233689.81	478825.72	-77460.87	-3.3674314e9
H	1.0	4.0184383	2.521704	23.6322	105052.15	180161.5	157594.78	167623.23
H	1.0	6.690226	11.197355	3.8405998	186797.61	-20611.602	-712242.5	756141.44
H	1.0	10.64576	1.5968676	19.20374	-523667.94	135198.88	-256831.66	-2.7240794e9
H	1.0	2.3681953	5.1563253	16.28016	-154429.45	451843.4	404030.94	-9.6416435e8
H	1.0	2.8742511	13.657603	22.493565	202384.44	97874.62	197457.02	-3.2321943e9
H	1.0	1.5156538	11.070013	4.63117	643181.4	-306191.12	251832.42	-214303.56
H	1.0	16.44521	6.0279036	21.141659	-435573.06	14724.654	-348428.94	-5.59737e8
H	1.0	0.9133112	7.4395356	12.228734	188859.03	79257.414	49531.2	62952.04
H	1.0	11.447234	20.633963	4.0421257	272818.56	242406.72	66212.31	722690.6
H	1.0	11.90599	23.131586	7.1118116	166637.39	-364493.5	-341054.53	-2.2145733e9
H	1.0	5.7110996	0.89378774	19.143953	355248.7	-175874.05	267638.56	-1.5887556e9
H	1.0	18.579037	12.746356	4.279165	-55384.406	184737.36	108177.03	-37670.492
H	1.0	4.9528227	21.309286	21.56684	-465462.4	-94529.64	-237580.81	-5.2831805e9
H	1.0	20.104124	18.50318	3.3663797	-23277.963	126679.14	462434.72	48675.344
H	1.0	15.616151	6.7952695	2.8923633	-114094.12	-42190.56	-81396.195	167468.0
H	1.0	20.948223	21.38693	14.139637	268588.75	87628.56	-72251.625	8.901146e8
H	1.0	2.3802085	21.706877	13.667722	295095.47	8612.152	-316714.56	-114087.984
H	1.0	17.517025	6.757946	1.6961619	-41480.13	62464.07	135509.42	5.071506e8
H	1.0	10.678496	19.18831	7.6466656	320379.2	121956.54	-549153.8	-1.6360274e6
H	1.0	0.31881553	17.124136	13.357239	-42929.734	719147.56	133864.11	-1.0157039e10
H	1.0	2.096023	24.044838	22.944725	15443.236	-236325.75	99311.055	-963614.75
H	1.0	21.483528	3.6358826	14.011711	170299.9	-138502.34	33377.586	-1.8001471e6
H	1.0	0.3284914	8.112901	9.376186	186615.69	-61777.598	211827.2	7.699811e8
H	1.0	7.2017574	5.5060587	7.1998134	269240.44	289402.94	437153.6	-3.4719516e9
H	1.0	8.09443	1.866695	19.776085	-248254.88	-553462.25	22662.273	-806503.94
H	1.0	20.360666	17.977232	23.838142	-169266.97	37608.363	-342579.72	-1.3298002e9
H	1.0	16.141455	19.378265	17.833166	-153881.64	-495317.1	-47979.59	6.7185434e8
H	1.0	20.92818	4.8324995	2.2283022	716546.44	-264658.28	224227.39	-1.5421787e10
H	1.0	10.043977	12.988625	14.283739	-24471.99	-100981.445	-688980.44	-490061.53
H	1.0	0.95090324	13.06032	17.849596	13979.827	-172592.12	-281630.84	-416262.12
H	1.0	13.133271	16.566025	20.858812	47449.234	-190043.1	-262969.66	8.940738e8
H	1.0	14.302614	17.126743	7.091778	-612481.8	-492206.84	-283945.3	-2.453516e6
H	1.0	23.836044	0.17668095	2.8349385	-459313.44	44318.75	68757.77	-7.547812e8
H	1.0	16.005371	3.9628587	17.889688	-290192.6	119279.72	25539.441	-62225.28
H	1.0	21.024431	6.712148	21.11178	-107779.25	-159152.23	-75508.055	1.3011799e6
H	1.0	20.945862	20.89446	2.2875335	375656.8	-546331.0	273871.2	-1.3028777e9
H	1.0	14.875124	16.617666	15.7125635	445903.8	-732907.1	-718319.8	-1.2266208e10
H	1.0	8.649008	23.041544	1.5171708	-109114.98	-187215.06	28434.385	-141431.05
H	1.0	4.0349216	11.482376	12.551817	-207797.94	375295.78	-449242.03	182936.97
H	1.0	24.056112	17.886011	8.125103	-494263.34	299155.66	-190270.61	884444.2
H	1.0	19.79325	16.002758	18.818298	84659.41	153033.5	492060.25	-1.3073365e6
H	1.0	7.6604896	6.540423	16.70432	-5016.1616	53978.49	-159015.75	1.401281e8
H	1.0	18.934649	18.002808	13.032084	-374745.47	43868.758	-291841.25	48667.52
H	1.0	0.24034151	23.747965	21.930176	-10308.006	39587.43	235606.25	408472.6
H	1.0	4.4097013	17.781118	3.0017664	-200659.3	529477.0	-53357.777	-516187.7
H	1.0	2.9657304	15.824033	12.674925	-18672.299	-304561.5	20239.984	1.9290861e6
H	1.0	13.827869	0.85291004	16.961763	198260.05	-350038.22	160570.11	-2.9396736e9
H	1.0	16.951555	17.482925	16.87305	10891.141	363505.0	324523.53	-361443.16
H	1.0	4.478848	8.918901	15.910347	132087.28	-253257.38	-377285.9	1.0573034e6
H	1.0	20.587189	16.323164	1.0913122	182476.4	-373504.62	44379.68	-4.9696364e9
H	1.0	19.76388	12.726409	10.336744	-56877.164	211675.8	129811.89	-496136.03
H	1.0	23.91777	20.94545	21.970413	-453964.3	-147859.1	-293958.25	70525.54
H	1.0	4.1717777	14.797276	5.6125603	37285.773	-283076.84	637057.75	-87741.414
H	1.0	19.245773	14.197022	9.197883	-64374.13	511906.38	-85336.484	-3.0280243e9
H	1.0	23.03155	21.931295	12.4943075	-298235.53	-172439.3	516182.2	-3.977804e8
H	1.0	17.954336	13.289668	15.1499405	344286.28	496665.8	138075.56	-511667.2
H	1.0	4.318377	20.8756	4.031483	114512.516	506858.7	88426.27	-739962.25
H	1.0	2.2745872	10.2917	11.915426	427237.38	-136574.55	-240253.27	-1.01960325e6
H	1.0	17.96707	3.2375479	18.416216	-77571.51	-361779.47	-84844.43	-45366.195
H	1.0	9.368308	21.188076	20.699026	38000.902	-155776.5	565118.94	-2.457064e9
H	1.0	18.522182	1.8891261	16.610937	24890.049	110070.97	284376.66	-328180.28
H	1.0	15.095304	10.478987	0.2611733	-380983.56	-347560.94	-442497.06	-6400.5166
H	1.0	10.809203	7.4804916	12.313385	-239124.25	-327161.53	-447322.34	-315929.38
H	1.0	17.905472	16.086824	1.7116228	-507316.7	-206108.12	228727.95	-109870.16
H	1.0	4.944351	22.044003	17.11669	211562.06	-431493.8	79689.9	-3.4307126e8
H	1.0	19.437782	11.261009	5.204057	100886.67	11087.417	-106052.24	8.1079475e9
H	1.0	21.969063	6.8050756	9.330392	-208851.83	-371181.25	-29700.494	428396.47
H	1.0	8.755647	0.22462592	5.844357	-111149.05	-527213.06	-94976.82	-3.5912172e9
H	1.0	14.3187065	7.4342837	0.82506305	-372406.8	-239852.44	322377.2	6300.302
H	1.0	13.406729	14.159451	17.058773	-185253.66	-350188.7	161889.39	-510224.78
H	1.0	0.9855398	17.6381	16.815956	-190029.39	230795.5	-303726.16	-745752.94
H	1.0	19.8587	19.32321	17.772911	168546.61	303467.66	-225931.69	-5.575947e9
H	1.0	16.061136	8.283693	8.64187	234516.25	376732.22	-408454.1	135346.66
H	1.0	8.704204	22.069016	5.2290726	-32190.047	432593.53	-241617.8	5.656863e8
H	1.0	8.035259	18.656233	16.521986	283394.72	-103937.43	384874.03	-965630.25
H	1.0	4.9360175	14.176496	12.0069685	-99409.25	-64732.168	209049.83	54587.08
H	1.0	21.885853	23.159012	13.897226	139063.84	287328.88	-453849.8	-131550.4
H	1.0	5.694134	4.6297	11.748615	-77022.805	25459.697	310343.5	4.509541e9
H	1.0	21.346308	11.781513	13.767601	-36784.957	144825.42	129921.97	-3.2900708e9
H	1.0	10.686407	0.07283075	20.60965	22617.201	597116.94	143572.34	1.2478427e9
H	1.0	15.770914	1.2362269	12.837641	-125128.04	293935.25	144962.92	231067.16
H	1.0	8.679714	4.1698008	22.809105	439056.66	-19821.832	-260921.11	-3.2965576e9
H	1.0	15.93	4.0733137	10.621897	375910.1	-269950.03	476832.9	-6.153696e9
H	1.0	12.689985	1.4561765	3.1267862	-589772.1	-18504.06	-101974.06	-34877.246
H	1.0	7.020771	14.569847	20.595943	136767.97	184050.0	74335.62	-541655.06
H	1.0	11.2851305	14.204793	19.514187	112256.664	-83289.52	-38198.42	4.1637535e9
H	1.0	5.950741	5.857643	17.524923	86125.53	-214746.86	245746.3	-175815.0
H	1.0	8.602587	12.2968025	16.997965	-238152.17	-112873.195	18696.785	1.7901541e8
H	1.0	23.181059	12.1007	18.895378	-503567.47	134334.17	176045.4	-267593.4
H	1.0	16.73522	14.322815	18.893774	351106.62	-204906.8	391776.22	1.2615081e9
H	1.0	17.105438	1.5905602	4.0032344	234480.19	41287.414	613840.75	-785319.94
H	1.0	14.523663	19.844772	16.782198	-37574.043	-335443.72	-262483.4	-1.00214525e6
H	1.0	12.636834	18.386995	13.35338	427871.56	77957.01	163284.45	-599502.0
H	1.0	15.708542	19.28736	12.956916	-583655.3	310657.3	22495.473	-4.454901e9
H	1.0	2.2236156	8.274054	2.2036238	28831.715	185473.38	-46833.746	-8.1057146e8
H	1.0	10.828852	11.236966	0.8826042	190367.94	-444336.47	136313.33	-4.1711982e9
H	1.0	3.668357	20.561363	19.861654	-32683.97	-8481.521	393656.84	653533.9
H	1.0	17.197649	8.709664	14.475894	-288066.3	3393.5466	-49314.367	3.040937e9
H	1.0	0.4922045	16.712376	20.392097	183142.3	-137894.5	-315756.66	-55814.965
H	1.0	2.1058323	12.134821	10.682838	-111269.15	99473.41	-326502.72	-5.64753e8
H	1.0	18.54089	6.8232813	7.5547576	227604.89	50049.773	-111326.02	-2.022152e7
H	1.0	21.416544	20.6514	19.635515	-109071.05	-408643.75	-119010.07	891206.4
H	1.0	7.354205	16.750347	4.3572803	-241858.3	-161838.78	156316.58	1.4843971e6
H	1.0	19.279043	16.787794	20.557526	160787.6	-71459.625	463151.44	1.5933008e6
H	1.0	0.78103477	14.72402	3.3829148	21088.877	-38030.89	-437633.12	-1.6354506e8
H	1.0	17.071262	8.406231	6.7670317	670813.5	-215490.42	-125602.63	-5.178937e9
H	1.0	0.40797457	12.554827	2.5869546	-47714.99	505811.88	92444.734	-4.334225e9
H	1.0	1.6301823	10.9836	18.493057	-27347.082	78275.11	132276.55	242768.44
H	1.0	20.366371	1.6370392	8.870783	176843.34	-20398.035	-66493.74	145339.23
H	1.0	21.537952	2.8027673	17.96183	662444.1	-172393.19	-27870.908	2.4191688e9
H	1.0	12.459095	12.742983	10.277292	105329.84	-270818.47	-78936.445	-5512.781
H	1.0	5.8405027	9.6215725	20.6869	76661.65	-87493.91	-434603.12	-1.6112792e9
H	1.0	13.577364	5.0100355	21.489761	116671.266	-211116.14	-425568.9	7.83755e8
H	1.0	8.493114	16.35403	1.0451314	-472713.47	366703.25	-170025.61	468420.88
H	1.0	11.936681	22.62933	20.55173	-248443.83	296950.3	121964.17	-1.7410807e9
H	1.0	15.210271	13.65512	4.3443904	-405704.7	-4796.8613	199299.81	1.4647002e6
H	1.0	5.4851713	15.643789	22.23296	-3330.4714	40349.348	415983.9	-1.4703162e9
H	1.0	12.005895	8.313403	5.0838423	-268792.2	69321.44	-174780.19	3.724545e8
H	1.0	21.575935	5.3914084	15.1564	91096.14	11996.093	135029.08	651856.7
H	1.0	1.4552966	6.2717915	13.911776	4826.8896	158024.62	-171949.97	2.5147914e9
H	1.0	7.5209236	18.404951	5.5780897	-175981.97	136859.84	-192933.23	-9.276121e9
H	1.0	11.605575	4.284887	20.37978	141393.64	229714.66	191697.58	-1.295234e9
H	1.0	21.001379	16.907434	11.879681	-84867.27	-131428.4	481862.97	-381006.3
H	1.0	6.907746	11.338431	0.47840616	-284877.97	464978.0	169409.7	-1.5109652e10
H	1.0	15.162832	23.25966	5.3555856	-566711.0	-180258.94	35867.426	1.20395144e8
H	1.0	6.284743	10.574229	9.537491	92874.99	-82226.81	461451.78	-481148.06
H	1.0	19.254492	23.101091	14.0377655	231042.36	109705.18	160552.7	4.6661473e9
H	1.0	14.534277	6.0306306	19.974932	-31913.479	-407337.28	-187173.11	-4.2662495e9
H	1.0	6.082148	22.567295	23.685501	-133489.27	-317170.38	-149.6532	115590.95
H	1.0	8.242709	23.353743	13.55328	-447487.62	-272587.34	-100575.555	319356.97
H	1.0	3.7240481	11.595373	20.035599	197645.42	-446365.84	-67111.2	626133.94
H	1.0	13.348955	9.015995	6.4047384	-316030.06	56218.926	357249.78	1.8315075e9
H	1.0	15.016162	9.2564	19.809637	424309.34	101394.234	-282328.6	1.1312309e6
H	1.0	23.61895	15.220869	4.852278	356696.44	-93343.34	334454.88	-492706.9
H	1.0	0.14001352	4.8390145	17.290602	103135.21	-193876.06	-161632.73	511895.9
H	1.0	12.077035	13.563414	22.093794	738137.5	67608.41	16934.635	-1.0999711e6
H	1.0	23.54829	21.487604	5.7322907	108585.12	-300708.0	206548.8	-6.691971e8
H	1.0	1.2217573	2.4863374	4.286917	-202753.73	343074.94	206478.08	5.4654e8
H	1.0	23.76481	6.931489	17.377338	368336.84	-9475.761	-363384.72	-708538.75
H	1.0	4.103878	9.405134	6.803594	-519534.8	76487.79	-263151.25	-718141.06
H	1.0	13.782677	20.628338	19.707474	-297437.62	12143.956	121545.44	689525.44
H	1.0	16.23664	11.265867	20.743568	324448.5	-392258.28	100149.05	-373211.66
H	1.0	4.1096697	13.60981	20.266804	-377840.6	152270.53	-250502.12	-3.9259223e9
H	1.0	21.638094	21.037537	4.461488	-508666.6	380445.8	-465197.47	-5.886149e9
H	1.0	2.380369	4.9281983	11.347839	244804.72	-126331.09	80961.76	-1.6203848e6
H	1.0	22.898958	14.972982	3.0770419	303094.56	257405.86	-481234.0	-8.827817e9
H	1.0	14.362299	10.874795	9.25873	599628.6	188091.53	70933.1	-624411.0
H	1.0	8.034336	0.25899	4.0175133	-285253.3	56568.055	248160.7	-637334.25
H	1.0	20.910124	22.27932	10.317559	163143.7	-362224.4	-77101.305	1.0638025e9
H	1.0	20.089203	10.72562	16.975191	-157518.33	-62723.266	-13954.13	20944.95
H	1.0	22.600014	15.943752	9.686851	-248670.81	-195256.97	430492.97	-571655.25
H	1.0	4.9172072	3.6979809	13.758366	219886.75	-619447.94	-345959.28	-5.346188e9
H	1.0	13.1043625	23.526081	13.424418	-487143.94	-45419.133	179511.1	-507077.03
H	1.0	12.304038	15.960486	0.44242218	-414838.56	-194033.83	327801.1	-418907.4
H	1.0	9.268258	18.199802	2.192641	-189043.81	408728.72	200980.17	-5.799472e9
H	1.0	1.0282834	14.955391	7.6422734	-116215.555	-10824.22	-152503.12	7.918179e8
H	1.0	12.66939	23.552067	1.4105785	-138237.23	390420.16	-336379.62	-705682.44
H	1.0	12.6819725	11.813996	0.81427675	-17928.11	274059.66	-162878.95	187750.83
H	1.0	17.2304	10.618829	4.922308	278028.16	135820.97	-178448.72	1.6125745e9
H	1.0	0.97992	23.126001	1.6573992	13864.847	-178961.45	32985.457	729806.0
H	1.0	14.100445	5.1715837	11.297428	326812.2	-125401.79	-54651.11	-790403.1
H	1.0	18.530832	4.8221655	2.7297833	-298732.44	147078.97	55412.676	571711.7
H	1.0	15.842058	2.4898937	2.2569513	371384.38	-451180.47	129047.91	-839001.25
H	1.0	17.265593	11.535734	3.0854988	191102.67	380159.06	264667.25	-3.860212e9
H	1.0	22.911894	12.274805	21.70229	304532.34	-451453.97	216904.97	-3.5834301e9
H	1.0	18.242441	23.424372	3.6021614	229566.3	501339.25	-359983.62	74738.234
H	1.0	6.7361736	14.886614	11.03956	544195.6	-149677.92	-235224.9	-5.776623e7
H	1.0	19.514893	3.8700993	19.80604	-253201.7	-143092.23	578663.5	-837608.5
H	1.0	16.217356	18.10118	8.033445	1737.5945	-31237.334	437482.9	82562.16
H	1.0	14.109877	19.922678	0.84958225	-62380.438	325469.75	35612.0	-1.02726586e9
H	1.0	16.355953	22.671223	21.543064	220763.33	-164886.39	101349.5	-328042.84
H	1.0	8.009152	8.752841	23.282219	217107.22	172741.5	-130216.414	2.5057646e9
H	1.0	22.841145	9.503914	8.247966	99571.28	580813.9	-289537.84	-4.2327416e9
H	1.0	23.9713	4.3199115	4.0450454	512763.7	3064.6409	57109.832	-818742.7
H	1.0	21.32639	13.459602	21.370668	79087.26	-508865.94	329950.75	6.24323e9
H	1.0	13.432694	2.2790632	4.81638	264626.88	278385.28	-83046.89	-5.2131667e8
H	1.0	17.7632	19.39625	11.172826	-261617.81	-89018.05	-157386.61	219158.89
H	1.0	16.000696	20.2624	23.040865	-150227.8	-212326.73	-49542.125	2.1101252e9
H	1.0	4.975181	12.3352995	14.749345	141412.25	322835.97	-23994.213	1.8835135e9
H	1.0	10.788857	3.2744875	13.349105	-286657.5	-605370.5	-357898.97	-1.1944314e6
H	1.0	8.724025	11.041754	14.703756	-57621.027	-156148.83	-227152.61	-113777.44
H	1.0	12.508097	10.800473	12.044888	24230.373	101416.57	182935.22	63881.633
H	1.0	9.39599	13.911343	10.265233	-192807.75	367992.03	545597.6	4.4128883e8
H	1.0	1.3749027	17.409948	0.4344572	324827.34	4350.859	-143880.56	-57435.46
H	1.0	20.232668	23.224848	22.240747	8719.808	328561.0	207533.8	-131264.31
H	1.0	5.694032	12.500425	18.871067	457208.16	127994.54	-693131.75	-1.038864e6
H	1.0	20.800585	9.071919	12.997882	-30982.252	-244876.2	174002.34	9.0177946e8
H	1.0	12.744418	9.152768	23.418869	-20063.627	138868.1	-376194.78	-3.0887557e9
H	1.0	0.46800506	3.6104085	21.881493	-355945.62	-412222.06	173914.44	-610736.2
H	1.0	24.004847	2.3341265	2.74884	112345.77	8126.39	-229209.7	8.0752224e8
H	1.0	15.54067	14.312731	17.347553	205374.16	-65074.758	106669.64	2.8568023e9
H	1.0	21.407984	1.691755	12.617475	38003.902	16675.15	236715.58	761935.25
H	1.0	17.771555	14.313507	7.7619047	-305123.9	275374.16	-153187.02	-9.0713683e8
H	1.0	10.661207	11.791354	16.171474	-40014.71	-45045.977	-87589.76	-41028.492
H	1.0	16.567657	20.589722	2.8648727	67223.26	-36001.625	-414032.78	2.6164582e9
H	1.0	10.964372	0.2580321	9.238706	57598.4	288673.66	345959.78	4.620356e9
H	1.0	2.9192562	6.6446033	8.018477	262467.88	-167567.95	129691.055	399098.8
H	1.0	12.799008	13.740946	1.1760575	69196.18	-114757.555	-131620.33	13366.779
H	1.0	0.7946885	5.0797005	5.9166684	239603.81	267918.94	-127459.05	-512416.34
H	1.0	0.64632624	8.0173025	19.413975	-428978.94	-380130.1	80052.86	-831298.56
H	1.0	8.216698	22.10783	8.837725	-276689.34	13250.638	-365618.5	60625.434
H	1.0	11.365333	9.004819	21.54488	-167451.72	378930.56	-212888.7	-14317.649
H	1.0	21.987877	9.521609	10.57693	645573.94	548016.1	-203292.7	-1.1481106e6
H	1.0	6.049461	1.9006013	12.023876	-518663.84	320730.8	282577.72	-3.9516588e9
H	1.0	18.217237	2.5361753	23.129786	-592995.25	402489.56	-226676.84	-1.3249866e6
H	1.0	10.046547	22.542582	7.5826306	150196.6	198682.83	16884.848	87802.45
H	1.0	2.735954	13.249334	2.2315176	101728.04	-153548.17	-159692.95	1.1224005e6
H	1.0	0.45090753	4.1737328	1.2044799	-244772.8	-219842.08	21884.906	45148.824
H	1.0	21.185963	0.044027057	11.398078	197021.75	151832.8	713625.25	-2.2806152e9
H	1.0	13.552996	2.8995059	22.805511	-521462.44	22226.47	-478178.88	-5.751289e9
H	1.0	22.844093	2.733271	7.4920073	504177.84	-515419.9	-311264.38	-1.4317848e6
H	1.0	22.741507	14.966278	6.750422	-160948.66	83232.695	382801.5	4.1598956e9
H	1.0	2.3538423	4.0627227	0.075774595	-379108.22	213650.36	291634.16	1.7456421e8
H	1.0	19.560053	15.940593	4.423829	-167309.66	19656.025	363262.78	-2.3597343e9
H	1.0	22.129972	0.25370455	23.491434	-70747.88	-138857.53	-285551.16	301379.97
H	1.0	22.921522	12.3490505	9.994862	33435.8	-252746.14	-190614.52	-167155.05
H	1.0	5.889981	18.452782	10.142742	-50666.406	-293074.75	95626.56	509398.53
H	1.0	19.034494	20.64145	23.76917	-396757.22	-107547.58	206520.62	-1.1327994e9
H	1.0	9.034806	19.549166	18.935179	-589998.56	50504.055	-153645.9	-1.00632494e6
H	1.0	18.692436	15.175925	11.527175	160411.42	131792.0	-326287.38	452849.16
H	1.0	20.884974	23.450335	8.164679	-64856.62	-404572.8	-65342.33	617.82935
H	1.0	1.0276434	17.779305	11.305957	35328.91	-238926.2	126973.945	1.6216996e6
H	1.0	15.723485	2.6037114	8.647243	-134930.36	292325.22	63818.688	6.6313636e9
H	1.0	18.722448	2.3036406	1.5081474	107948.375	-78881.66	19751.05	-2.7381612e9
H	1.0	4.8148103	10.642902	4.132942	66117.15	-320638.56	-212177.4	-1.1044403e9
H	1.0	8.402629	6.890209	14.497782	-57695.195	-100013.35	-201176.33	22915.059
H	1.0	0.036322363	19.579468	16.704458	202288.88	-224354.56	109155.414	6.71047e9
H	1.0	1.3254176	2.2383664	16.287842	570635.56	100276.89	-593315.4	-6.5836426e9
H	1.0	18.213835	0.63879603	21.644125	-308701.28	191114.6	-225697.45	-4.4916884e9
H	1.0	14.103161	11.66859	16.457308	-132185.53	218372.0	577907.8	-789339.56
H	1.0	19.389889	1.4777457	18.70698	635758.0	-56028.297	109906.5	-2.5911616e9
H	1.0	12.216565	17.844427	19.373102	479708.5	272605.84	101859.63	-260385.6
H	1.0	19.744902	10.353413	19.64264	-123189.49	483152.4	285704.4	-2.406918e9
H	1.0	22.673243	6.261241	0.08208728	-765.2068	283268.9	-218246.61	1.4511055e9
H	1.0	16.360556	21.52215	14.8286295	-227081.62	-46263.3	95738.94	495288.84
H	1.0	9.555076	17.884796	12.8086195	-155617.0	-147971.5	102943.26	-43224.883
H	1.0	1.1087912	0.63382244	20.312805	-203.31998	-734849.9	63771.46	-1.475937e6
H	1.0	10.705764	1.6517259	10.768117	233773.05	102469.22	-96646.81	-882562.9
H	1.0	19.80529	1.8238477	21.087408	275581.78	-304754.16	26830.047	1.0910273e9
H	1.0	15.07956	10.653782	6.429197	-245301.16	493378.2	81670.375	-280432.84
H	1.0	11.989547	20.08185	20.358929	-366201.62	-276047.25	111795.45	-9.8599456e8
H	1.0	4.6834235	9.379647	11.532926	3054.5828	-585139.94	-367803.22	-6.4982144e9
H	1.0	9.793922	17.59165	8.716353	-543788.0	-148936.58	322273.75	2.0153158e7
H	1.0	12.695174	3.0268078	7.938465	406699.38	48085.625	206934.36	-533792.75
H	1.0	14.194749	10.958061	2.8081925	91274.88	-355704.8	-165726.31	183127.97
H	1.0	6.357563	21.817122	7.6225543	61667.824	-98017.76	-390633.0	-503160.06
H	1.0	10.441669	8.308517	6.685893	206515.16	-387343.78	-488272.88	-8.0695844e9
H	1.0	7.8402977	17.948473	24.034397	85906.6	238981.95	148664.6	860888.75
H	1.0	15.276974	23.944166	19.033295	39866.805	471060.72	365182.03	-3.9763172e9
H	1.0	7.473058	15.686233	14.13662	350237.62	189439.48	-46613.926	1.588761e9
H	1.0	18.066662	13.562034	22.041569	-211567.62	597658.75	52930.082	-1.4204756e9
H	1.0	7.534309	5.820594	0.41419357	126766.23	-497009.22	352838.44	119565.79
H	1.0	4.752039	11.7352	8.87197	330272.44	-39511.594	612415.6	-3.299718e9
H	1.0	2.553374	5.82192	22.655125	158892.45	26799.096	-453098.7	-19514.916
H	1.0	7.779741	1.9901034	13.749188	-96151.85	346367.78	-577805.25	-377299.03
H	1.0	20.059284	22.015516	16.579966	-393424.66	267919.25	11469.267	-1.4029807e9
H	1.0	21.32066	12.409073	19.572708	-350560.7	490670.5	-283472.56	346306.62
H	1.0	12.06434	3.8934479	3.1428208	308015.94	330930.22	-49882.805	-1.1959197e10
H	1.0	2.581263	6.271696	5.5318823	363343.12	-12851.077	-678145.5	-4.1531604e9
H	1.0	8.15055	3.4456692	16.341192	-104777.44	-215003.19	-93024.94	-2.5995986e8
H	1.0	5.0574613	1.8654586	14.691729	-416559.4	223968.84	-136566.7	1.5807096e6
H	1.0	19.60041	6.0001326	4.0401363	-262539.34	861121.44	-445753.9	-1.0913812e10
H	1.0	13.478244	8.234228	11.284192	299020.12	707060.1	232028.34	-912598.3
H	1.0	17.378092	3.5810876	15.99852	-331813.78	-281009.62	268929.9	-1.152838e6
H	1.0	13.514933	16.208458	19.004425	76580.016	-716260.94	-211552.27	-1.1169126e6
H	1.0	16.08531	15.981436	7.3050466	-228331.88	-53268.22	30252.936	-288058.56
H	1.0	10.909028	10.524832	18.872854	-221673.08	-113277.65	-4972.6074	224660.22
H	1.0	4.882423	19.583746	1.4420258	-124017.13	117106.04	80194.67	258693.98
H	1.0	8.642069	16.752138	18.085428	-104932.6	-30032.207	-147980.8	-968462.75
H	1.0	6.1460323	0.91113853	4.583106	-158006.45	290438.94	-49231.96	3.811593e8
H	1.0	13.883954	1.8213019	21.062378	-9151.628	319422.44	-655034.9	-1.1947614e6
H	1.0	3.4487088	19.236855	16.100882	23458.91	150695.47	-264793.88	-2.6940787e9
H	1.0	20.772024	5.337573	11.738413	-176978.42	240242.16	-294596.78	7.221827e8
H	1.0	0.13922492	5.85083	8.994883	193450.77	-329759.97	-27262.846	-2.3196416e8
H	1.0	6.525076	8.754369	3.4104507	19797.197	299130.3	314896.0	1.9387758e9
H	1.0	19.521366	7.9177747	17.97252	-212144.52	26436.076	297225.2	443644.47
H	1.0	0.5397279	0.6879704	5.814585	340.13376	235610.56	538804.5	-4.1317967e9
H	1.0	2.6922648	12.94955	7.116185	-244972.44	162198.58	-191200.67	1.1442816e6
H	1.0	20.41153	12.301284	1.0346503	239147.89	89166.45	-338484.56	-1.2351636e9
H	1.0	6.174974	20.391104	10.10485	-229479.92	-97521.22	-17357.746	-3.01993e9
H	1.0	10.878653	16.40215	19.110277	-65462.035	-247958.75	-55338.223	-173811.23
H	1.0	12.059458	14.712874	9.020703	271970.2	1569.1095	16667.547	-74298.81
H	1.0	22.928785	19.151417	2.591173	1149.9202	271307.53	-357386.4	-2.3055736e9
H	1.0	16.22345	5.3522387	8.108938	44636.734	276845.7	-109802.6	4.6217136e7
H	1.0	16.24396	23.443428	11.180426	-48042.316	477060.56	268351.4	3.8616028e9
H	1.0	22.708044	3.2969105	15.452526	58551.723	-368391.84	534095.75	-1.1153569e9
H	1.0	9.5075035	0.5264007	7.753879	-3775.7327	254203.67	505854.78	3.7278973e9
H	1.0	8.328693	11.99527	2.56001	-50171.68	-233766.9	75597.164	1.2641811e9
H	1.0	11.085131	0.6110278	1.0433649	-159479.84	-381596.4	-241842.61	-140115.84
H	1.0	14.125539	23.398197	2.959236	23967.67	-382192.44	210662.75	-3016.2278
H	1.0	1.2944822	14.398664	23.706896	-194941.7	250596.05	-75451.64	-2.134716e9
H	1.0	10.390909	11.8614645	20.840374	-222390.72	-23177.092	-102218.07	676446.75
H	1.0	10.591681	14.698383	23.871872	62899.74	-301700.22	-16947.25	498506.5
H	1.0	18.074379	21.555481	6.2658644	-559086.6	-109903.01	321960.97	-586899.1
H	1.0	21.633383	17.307383	20.245222	-349185.7	-238428.98	-282906.7	-321706.7
H	1.0	11.55398	3.521547	1.0583967	183548.48	42921.66	-223866.08	186273.14
H	1.0	23.136133	14.004785	12.205589	-91024.26	-325679.62	-156848.92	2.4349972e9
H	1.0	6.7259736	16.849913	11.393118	-324760.03	-203409.34	28240.045	-105616.66
H	1.0	5.4217615	20.681957	5.610609	311532.9	372584.16	548969.44	1.01931425e6
H	1.0	17.188545	11.098572	14.802899	37082.773	263789.22	-260174.17	-7.542009e9
H	1.0	12.813531	16.580538	17.1739	223321.14	70726.81	115430.32	1.227007e6
H	1.0	11.420157	16.45645	9.759661	371220.7	14341.456	241855.89	-566721.5
H	1.0	22.142752	1.707458	9.828034	-305555.56	-153729.89	158270.38	-8.511319e8
H	1.0	12.190183	16.043085	13.8842325	15861.511	-217795.5	-214384.5	-1.00670835e9
H	1.0	13.070598	7.195919	19.013199	148336.8	-154561.3	148292.77	2.1548961e9
H	1.0	7.1471395	1.9816517	6.447393	-31545.09	-642810.44	-205617.16	-1.9660411e6
H	1.0	15.917427	20.608604	10.275634	-126008.516	-109119.2	-72653.6	4.661444e7
H	1.0	4.209004	17.110394	24.028667	137143.53	-139996.5	-647047.5	-5.631669e9
H	1.0	20.726265	7.377195	4.8567433	-99579.0	244300.81	-332222.84	1.3719301e6
H	1.0	19.01916	1.7460697	11.370834	-41181.582	91213.0	340767.12	-1.763804e6
H	1.0	4.1539984	4.869015	6.758215	-200935.81	-85941.24	434450.25	-2.7328092e9
H	1.0	14.93105	16.373493	13.684509	300515.5	-242881.73	-234480.02	165379.0
H	1.0	9.5859	2.1417432	23.94578	-11715.15	-540040.8	-267738.06	-4.2154972e9
H	1.0	19.474487	20.867254	18.912209	-168641.83	-330752.0	273771.56	724073.0
H	1.0	14.6262455	10.742273	22.373343	-33165.887	-56751.496	-353774.12	-238514.88
H	1.0	17.533358	10.963384	11.710904	-197845.27	-101385.016	47908.37	4.2590205e8
H	1.0	0.31764126	5.1296864	10.918624	-108554.91	-127317.664	-23851.404	218722.77
H	1.0	11.530001	5.357608	18.61762	-168533.31	-312653.4	88906.055	-253835.5
H	1.0	13.342419	21.667892	23.714657	-401701.8	130060.05	188582.31	1.488866e8
H	1.0	0.11776348	8.064251	15.859764	-83899.4	189446.14	198622.17	5.5210214e9
H	1.0	23.869946	19.311365	5.595545	293629.22	-177557.69	-551204.5	2.778382e9
H	1.0	7.4280686	13.945389	12.872205	-133825.75	61194.863	249486.38	-6.289491e8
H	1.0	6.3316565	16.682417	18.988073	-387034.97	56524.277	42096.645	3.537336e9
H	1.0	23.813389	10.180229	5.668918	156851.5	-209725.45	49422.83	9.765131e9
H	1.0	16.235682	17.455395	3.7352273	-253859.64	-392108.62	-272988.25	-2.1008928e9
H	1.0	17.192192	17.435396	10.848579	-403211.78	640820.1	-2097.2263	-5.3587e9
H	1.0	21.89608	23.71438	4.6338215	161941.02	264244.72	299163.22	6.7752776e9
H	1.0	9.527786	14.866921	19.01627	156426.44	18766.938	-375380.44	548094.7
H	1.0	8.13545	3.8095698	0.93358576	196336.1	125883.98	360877.84	-5.350028e8
H	1.0	3.706408	22.731396	0.0920958	84648.42	-64601.94	560260.75	-131505.05
H	1.0	14.821164	22.404667	16.287785	-29788.598	246551.28	177614.42	2.2763146e9
H	1.0	10.182414	10.522505	8.56766	-560002.6	569934.7	307600.72	-1.276836e6
H	1.0	9.771803	8.739565	17.722961	-525672.0	-213574.03	-362019.22	-1.0607569e6
H	1.0	23.454353	21.275084	19.036053	15441.379	-213241.95	160231.73	1.8493733e9
H	1.0	21.321394	3.378266	3.9396787	-69183.13	-350312.56	-156462.1	-7.2773335e9
H	1.0	0.47119904	7.3797593	2.8995943	426125.03	-69100.67	-172356.36	-1.8347562e9
H	1.0	14.281598	11.50178	14.361784	98133.375	493646.6	396002.3	-4.1989824e9
H	1.0	5.292297	3.7659132	2.5157368	-299521.66	-257741.97	252923.19	-4.0430456e9
H	1.0	8.665289	0.14467895	9.816723	-171436.1	-2192.6733	8766.517	797206.0
H	1.0	7.8206034	7.8246713	20.318651	-350697.53	43475.246	-105422.68	1.3717912e9
H	1.0	16.099607	0.4259087	2.6274261	-476472.28	488015.25	-434050.12	-1.5399756e6
H	1.0	23.058285	7.157677	11.754095	192072.25	262328.2	-74759.16	4.0475222e8
H	1.0	7.342367	19.068459	11.374991	414537.66	-557573.7	167627.27	-2.2015406e9
H	1.0	23.00171	23.312767	18.639847	-289416.16	-95826.484	294545.56	8.095374e8
H	1.0	16.669233	15.411558	12.187394	-502793.4	-107773.2	72543.9	-3.989056e9
H	1.0	6.3120227	6.7975607	10.172945	338606.72	-146809.7	-526470.3	-5.181711e9
H	1.0	23.267187	12.243157	16.64293	201750.33	-311907.56	90496.75	-5.0393178e8
H	1.0	2.2454438	6.9143596	18.45301	-226949.92	203827.4	-264105.34	-8.4968474e8
H	1.0	16.088951	15.736934	22.148697	23962.584	329184.2	-161935.81	360847.8
H	1.0	4.062461	15.961063	17.861263	-238980.81	173962.88	315856.12	-315617.75
H	1.0	10.248273	6.2487483	5.2373734	141289.36	-149615.34	-279167.5	-17366.484
H	1.0	4.943535	22.328455	1.9760994	-790405.75	-257169.52	239221.31	-4.4614636e9
H	1.0	14.015958	20.270506	13.806038	125346.875	536447.44	-277877.4	463898.84
H	1.0	15.310018	5.4674926	0.7736962	112842.97	270911.8	-27770.121	4.824102e9
H	1.0	15.193356	1.7172118	6.1988335	73848.6	256823.58	-83656.4	-2.8611786e8
H	1.0	15.930951	0.3886539	9.527372	44336.484	183430.84	-122447.53	95879.95
H	1.0	16.651485	8.200366	21.908333	-415611.75	-14940.655	178346.06	1.231786e9
H	1.0	22.703651	23.023926	6.7353973	-141465.28	75413.81	-129330.664	-27146.094
H	1.0	12.158535	5.648245	8.889074	61562.992	58089.395	254808.72	659156.94
H	1.0	11.943022	6.113396	21.37761	239615.62	-573750.0	468756.2	-577994.6
H	1.0	19.421293	9.807091	23.28117	80920.62	26446.03	-537159.56	68558.836
H	1.0	10.59482	18.475061	21.41056	4754.7085	139964.16	-113901.24	1.9762001e9
H	1.0	19.517706	19.07206	1.266936	216262.3	-98868.02	82698.414	224165.12
H	1.0	19.260506	13.521174	19.376541	236143.06	142843.16	-484240.1	-189070.4
H	1.0	15.222765	8.323222	16.7158	-29417.637	73726.29	-92455.91	776698.56
H	1.0	16.237965	5.105945	13.329743	45300.094	52270.848	-251687.95	-3.2175462e9
H	1.0	12.269997	22.248024	14.691582	299280.5	-576712.0	-326244.9	175745.55
H	1.0	17.637306	8.292393	4.3144603	44977.625	-259814.11	-254849.69	-1.0288924e6
H	1.0	19.106634	21.644506	2.1125734	234813.25	-156511.19	556319.1	3.9810803e8
H	1.0	0.6138182	16.183136	6.190164	152623.61	297633.72	425259.22	-669269.0
H	1.0	12.0827055	9.758621	8.549747	223069.23	156828.72	-174922.58	311520.3
H	1.0	13.224105	7.3544073	3.6283278	58856.41	174080.64	-74049.59	159099.8
H	1.0	7.968873	11.518336	21.205639	288526.44	83175.08	150092.14	1.6328385e9
H	1.0	5.8827963	15.877369	16.851816	237790.08	112536.55	-511683.78	4.7015325e8
H	1.0	9.820638	18.05741	23.419197	235951.98	-403735.8	526469.3	-1.104345e10
H	1.0	22.799057	9.836398	15.492729	86389.01	219878.02	490953.38	-114373.875
H	1.0	7.0182567	0.49943185	7.6226964	-60189.99	-351767.7	-574384.2	-1.1921775e6
H	1.0	20.088717	0.08127273	3.4681644	-374869.44	-85122.31	72906.99	1.4559305e9
H	1.0	19.573095	18.494736	21.790361	434408.75	-72132.31	14469.448	-792796.5
H	1.0	8.388325	1.8787593	2.2899184	-84453.695	63766.234	-293194.34	-101508.8
H	1.0	14.207861	3.4464161	16.283737	-320799.16	-162551.1	289049.84	-8.204443e8
H	1.0	4.892987	9.763334	14.0196295	-50515.38	-231581.78	128715.836	-786349.9
H	1.0	8.673211	13.748574	0.8497381	-397415.8	225542.88	247071.17	-2.4496684e9
H	1.0	9.852652	7.5852346	3.2912643	305080.84	-136707.66	-35713.605	-2.7770337e9
H	1.0	17.936077	4.666937	0.29018778	235905.22	-100488.72	-11112.156	4.183601e8
H	1.0	11.426905	21.51692	1.9380157	525030.4	-281643.44	183277.62	-2.3097577e9
H	1.0	12.044507	14.426115	15.395406	52144.37	237503.92	66226.57	2.672599e9
H	1.0	7.2615294	4.6438746	18.480673	-214369.47	-18636.42	-554172.5	-2.5019917e9
H	1.0	7.014624	9.203039	15.519611	-211656.31	541491.94	231453.64	-5.0739994e9
H	1.0	16.150927	13.345628	20.745766	25116.646	-105336.89	224233.77	7.3082926e9
H	1.0	13.303031	5.5478845	1.9649063	-154523.94	194376.88	12675.735	1.3348223e9
H	1.0	10.762756	22.11659	23.963467	56575.03	-270027.44	-610032.94	-2.8283843e9
H	1.0	14.719816	13.990926	0.011433344	-14635.194	198185.84	7342.043	273194.6
H	1.0	5.596586	19.062954	4.069252	26848.307	287146.62	-443995.7	-488538.4
H	1.0	9.045657	5.097073	2.4733615	-315364.16	30538.502	-373295.16	3.6397716e9
H	1.0	23.48789	21.567959	14.871154	209244.02	-390159.12	54646.496	-8.3724155e9
H	1.0	1.7490485	16.274618	2.385461	636743.2	23843.115	154774.8	-809546.3
H	1.0	19.606388	11.649106	7.25446	-247655.75	-7741.239	-119724.805	-1.6349143e9
H	1.0	14.797945	16.461079	0.123331815	559728.1	348015.0	506432.66	-1.6600278e6
H	1.0	9.484745	13.765832	4.0384436	-39796.902	267094.1	83209.195	-83122.3
H	1.0	2.8089392	18.173761	21.77041	127732.42	-203701.92	410981.66	3.0309763e9
H	1.0	19.417713	6.5424056	12.614915	106207.086	415564.44	67548.04	-5.3564575e9
H	1.0	11.242208	17.205616	5.5987377	497438.03	300389.2	-402583.2	-437382.66
H	1.0	19.963783	23.83633	6.2867856	-58941.938	-255180.53	-258428.05	-262496.44
H	1.0	8.397304	15.907225	20.291412	-98879.04	107215.4	288123.7	1.7961499e8
H	1.0	16.626991	6.7124734	23.533102	-170386.69	27103.129	-173320.16	137148.7
H	1.0	8.844027	11.354131	5.32921	-575373.1	-573881.0	-102947.71	-4.2863462e9
H	1.0	6.28393	2.8497581	17.487072	262471.38	-25350.283	-308289.97	8.485186e7
H	1.0	4.255074	6.794292	6.4585876	-116832.516	622830.3	609928.94	-2.3387688e6
H	1.0	15.347581	7.053949	14.853384	-83704.95	90832.734	37471.055	5.979101e9
H	1.0	0.9920078	14.363796	12.125913	-158914.19	338378.94	-302460.16	-1.2459636e6
H	1.0	21.12463	10.936611	23.160372	-461847.4	53622.324	-50910.2	-178139.2
H	1.0	14.226272	1.4352723	10.934792	196545.44	-99999.164	-255056.22	-7.32707e8
H	1.0	4.6585326	19.167221	7.9289007	568834.56	-701379.1	89679.64	-1.1802849e6
H	1.0	9.344891	15.804475	9.508333	55388.82	440132.03	322748.22	4.0382186e8
H	1.0	2.22437	20.848717	23.30074	-297674.78	-134503.11	-258473.17	-239340.72
H	1.0	8.246156	10.015531	3.2931514	-100301.49	35106.395	-121864.71	564018.8
H	1.0	22.649778	15.0724535	23.638721	-228944.9	-239583.34	-207911.1	-1.6870547e9
H	1.0	18.769619	0.96237916	4.7970243	-506497.66	-97435.77	-32968.465	2.0911727e9
H	1.0	12.655301	8.610956	1.4255847	-88195.38	-325577.2	-182233.05	426660.3
H	1.0	2.9229965	2.6233299	9.870186	51816.113	-236650.19	-260966.47	3.082572e8
H	1.0	3.5726805	18.018633	11.077013	360731.34	-125981.27	220095.42	-2.600518e9
H	1.0	8.905692	19.669024	6.8902736	-487062.5	152723.5	-70907.81	-9.4842266e8
H	1.0	18.963259	12.623303	12.450305	-337402.06	-501457.75	23616.648	-3.9108083e9
H	1.0	18.728458	17.698456	5.098242	20295.807	-304449.2	309135.75	-203154.81
H	1.0	6.98898	20.931932	13.240246	-345598.97	-698886.56	-211897.16	-1.01871625e6
H	1.0	3.5278218	8.066714	21.486471	245918.67	290818.38	210658.55	-1.9266538e8
H	1.0	10.218979	4.8881903	8.424231	281871.8	-304470.84	582323.7	-4.587594e9
H	1.0	20.365873	9.248239	4.015307	758170.9	-188514.14	98303.75	-8.2165944e9
H	1.0	3.7126787	14.097372	13.647595	281610.3	189071.27	132004.42	7.76776e9
H	1.0	21.44966	1.170307	6.455499	-283026.88	-159412.83	9124.097	-144072.61
H	1.0	5.8191385	5.3552504	21.59843	-199906.31	438484.28	-202440.33	-466441.72
H	1.0	19.67045	3.9058883	12.935167	-295379.47	-228715.53	225577.61	4.503174e9
H	1.0	0.7920661	10.747469	14.177955	104332.664	-103840.164	-74546.266	355085.3
H	1.0	20.966711	11.500767	3.8836272	-136478.14	-359330.0	164009.02	-732290.75
H	1.0	9.902045	0.87125623	14.200643	250029.45	-280885.75	203378.05	1.2572051e9
H	1.0	13.064337	22.505222	18.719225	2327.6685	-62345.277	181142.31	5.3598505e9
H	1.0	6.664997	10.444944	6.0065904	301007.56	-56721.434	371107.03	-1.8222825e9
H	1.0	2.4412756	10.223971	7.229605	237972.4	-71685.83	248089.19	-417148.38
H	1.0	5.144467	22.646074	14.745626	310969.4	114731.0	20459.02	1.8297404e6
H	1.0	1.5774788	4.053333	19.083735	82476.89	-248792.86	-84809.58	-171181.06
H	1.0	4.5442038	5.4445333	3.5311046	357551.56	-47977.43	-206674.39	2.7986033e9
H	1.0	3.31835	19.221842	0.20207576	231845.61	-272558.7	615213.9	3.253334e9
H	1.0	7.808158	13.19392	8.008885	-190418.66	195383.62	-188187.08	-216006.25
H	1.0	16.467318	14.805661	15.182216	-658647.7	51403.418	-39196.004	-1.2855741e9
H	1.0	20.49061	5.3133473	8.649789	-358678.8	72712.04	355701.22	719521.25
H	1.0	23.108013	18.070992	23.830227	25764.62	-81751.99	159698.53	519162.0
H	1.0	23.3502	8.428271	22.089851	-203267.7	101780.89	568095.25	-280784.12
H	1.0	10.258257	6.1107	17.305218	129266.086	-383010.03	-180519.02	-1.4680106e9
H	1.0	5.057426	12.707409	2.2784066	74051.164	11070.715	-418286.38	-346667.72
H	1.0	22.822252	17.629505	5.652782	-21179.182	-237527.56	295482.72	606106.9
H	1.0	18.52251	16.27324	7.0062914	145801.89	352796.6	187778.3	92005.47
H	1.0	20.526817	8.744533	0.8421697	328152.9	58608.906	-351605.88	-184655.84
H	1.0	4.941388	3.420927	21.69041	208246.33	91660.234	372950.22	-2.8990574e9
H	1.0	2.9596107	8.923478	17.85374	-337341.03	338095.28	-84348.98	77114.45
H	1.0	2.1157234	11.782016	24.006565	-226347.7	-329855.16	36499.902	908433.44
H	1.0	3.3971307	0.57627535	5.6536694	257610.86	151705.75	-390535.28	-587164.4
H	1.0	7.1337514	14.372576	4.71503	243094.98	668876.9	279518.1	-1.2161772e6
H	1.0	22.514656	16.80594	2.1454842	265192.66	56634.15	-46682.918	3.6489528e9
H	1.0	2.174781	12.212445	13.051107	-87524.38	326360.62	295920.72	-567588.44
H	1.0	1.7613	22.679014	18.409142	-300850.56	-79205.8	18979.15	-264095.47
H	1.0	21.229872	11.450192	11.770353	30700.805	-340396.8	569413.6	-163542.22
H	1.0	18.905636	8.206334	2.267268	393872.7	-507.6078	128692.35	554494.75
H	1.0	14.286386	20.549374	8.798357	80841.805	-351799.44	190177.42	-68668.74
H	1.0	7.2863293	11.422028	19.2292	-79313.45	-34689.703	248053.12	-684938.06
H	1.0	10.027457	6.666377	1.1507554	-17650.062	465811.38	102939.97	-8.916481e8
H	1.0	23.286558	4.135909	20.451382	22022.062	130046.39	-306583.94	-1.3869537e9
H	1.0	18.329824	11.442347	20.519115	473662.22	168954.94	-49694.83	8.991009e8
H	1.0	2.7621424	20.110212	10.527312	320153.84	-229636.4	-233235.97	-24325.875
H	1.0	4.775695	23.337154	22.063797	-478391.6	236282.67	-168898.73	4.18492e9
H	1.0	18.507345	21.367018	8.743522	344278.47	-146890.66	414300.56	-751189.2
H	1.0	6.5310926	18.747368	18.97602	44093.87	181029.47	164807.9	449747.47
H	1.0	2.0554883	16.000036	16.685247	91342.34	357549.6	-66855.54	1.0932531e6
H	1.0	14.31432	22.301329	10.918155	123731.62	-187623.81	-204055.05	1.1851246e9
H	1.0	15.6474495	18.052359	21.483307	64933.54	264617.28	39080.105	310903.56
H	1.0	10.415853	10.071034	5.014185	-152840.61	120047.99	-620756.5	-5.442456e9
H	1.0	23.518213	8.385459	0.8273379	253031.58	-74751.836	387431.28	-489058.3
H	1.0	3.2018967	19.387697	12.8553705	-290816.53	152301.34	-346856.72	-143218.27
H	1.0	6.4807577	5.5127187	13.517324	-3653.4343	109178.5	-19393.865	732217.1
H	1.0	14.290903	0.23214759	0.23413192	165756.2	511762.88	-511977.06	-4.9048883e9
H	1.0	19.03254	6.136757	21.191566	-521597.28	394448.72	88508.57	-1.9066228e9
H	1.0	20.111965	2.968618	5.6771555	196862.58	463735.97	12892.675	-3.7300076e9
H	1.0	12.6293745	21.88237	12.460574	158748.17	-97077.09	-241124.75	-2.0972388e9
H	1.0	20.586515	3.2632518	22.86881	-140787.94	-158690.4	728018.0	-2.6585308e9
H	1.0	17.508966	22.64479	9.805103	-416385.9	174244.1	-187437.27	-985887.44
H	1.0	23.275238	8.61746	13.980976	124835.875	119091.125	131048.47	963936.25
H	1.0	2.5447485	0.6740701	3.3197508	-265415.44	-504222.53	-475866.1	-1.1680114e9
H	1.0	5.838694	3.823239	6.961262	140209.44	320573.12	-99436.3	6.650302e9
1000
Lattice="24.079964 24.079964 24.079964 0.0 0.0 0.0 0.0 0.0 0.0" Properties="Particle Type:S:1:Radius:R:1:Position:R:3:Velocity:R:3:Entropy:R:1" 
He	1.0	6.4844995	2.224768	3.0486205	3137.1765	-816.50964	166.93169	134314.95
He	1.0	2.366486	16.128439	10.333625	2614.1887	-2303.341	521.6171	377438.12
He	1.0	2.3004332	3.4223206	7.1803656	3071.7222	-4326.497	-247.24329	33470.855
He	1.0	1.0477659	18.870579	19.531889	5146.27	7447.292	236.18968	-191.23317
He	1.0	20.970781	10.570268	21.262701	76322.19	12633.515	106283.86	7.225602e9
He	1.0	4.7122536	12.464504	21.82177	-3383.1172	-3746.0903	4193.0093	-33975.75
He	1.0	2.2313545	8.364732	14.191525	2188.0662	-4588.769	-3179.4756	32448.934
He	1.0	16.56096	23.762793	7.3210063	4737.2026	-579.18896	-3370.2273	-52.109463
He	1.0	7.4162636	21.36226	22.092464	-3392.1716	-2631.646	612.48615	25757.414
He	1.0	23.079302	1.2258936	16.5216	-4313.8716	5196.5757	-1621.068	1.735342e7
He	1.0	6.031464	16.55584	6.907032	335.45926	9914.159	2467.263	9.246709e7
He	1.0	18.55664	22.210009	11.517037	8727.142	-4793.0996	-9734.395	220696.39
He	1.0	16.6027	6.320972	11.701102	738.5938	3199.4912	2383.6392	94968.91
He	1.0	15.610051	6.093886	9.983098	4822.935	5525.4004	11867.933	3.0166948e9
He	1.0	2.9321394	14.2011	10.9869375	-3883.6096	-5638.5527	3616.7998	116.35375
He	1.0	1.890701	11.245724	1.993924	10821.209	1628.54	3283.6804	5.964451e9
He	1.0	8.293729	5.1770477	9.628297	-1317.4482	-96.223145	-5610.9443	-17.438854
He	1.0	11.137962	2.6303287	21.467241	-2105.043	-979.6811	-2638.0073	407247.6
He	1.0	23.277548	16.994875	15.782137	-564.0994	4375.83	1736.6052	295341.2
He	1.0	24.03481	10.350867	11.917089	-4457.402	1390.3348	-2402.857	578061.4
He	1.0	14.24724	4.4262753	9.273084	376.8482	3610.6196	1420.3694	470372.3
He	1.0	9.052363	20.448746	3.1059294	969.5013	7.272492	-2310.3726	304777.12
He	1.0	7.3699274	20.381973	5.0461564	-518.7338	7719.4805	-2176.5999	726365.8
He	1.0	17.907019	15.011368	20.558315	-3323.3572	1522.7118	1121.018	9.779073e8
He	1.0	8.533092	3.3896904	11.919395	7441.7095	782.9604	4499.886	24496.4
He	1.0	0.5091911	9.566899	3.187598	-1688.0791	3299.7168	2920.6123	825615.75
He	1.0	8.686912	20.430067	0.5746902	1792.618	67.478775	-9520.92	-996682.06
He	1.0	18.56665	17.496721	0.47655004	5053.21	-857.5201	1192.2538	5.944958e8
He	1.0	22.230576	22.98627	16.044886	947.4323	1799.1038	-5840.7163	-38454.492
He	1.0	20.421173	13.550636	6.888161	-1425.2804	-1532.1556	4260.569	646.9239
He	1.0	20.635366	7.7062325	10.970282	13451.532	21159.396	19784.9	8.97451e8
He	1.0	21.398958	7.2503014	18.844471	1539.3518	-1326.0737	3111.6128	2.513721e9
He	1.0	17.276068	13.600383	10.981018	-932.46857	-4071.7458	-5521.307	-42.20132
He	1.0	3.8430135	11.195717	1.3994945	-849.8696	-5050.212	4804.9116	-252081.56
He	1.0	15.590204	18.633701	10.015928	516.7435	2917.9749	2037.1207	5.3681505e6
He	1.0	12.261636	7.87294	14.600726	-7254.3105	756.1944	-7988.543	8969.238
He	1.0	9.302399	16.143631	4.4410167	-7332.8955	1458.8862	1575.4404	-591530.75
He	1.0	2.422542	22.356827	3.1400726	4715.796	1479.8547	-5494.136	1.3174927
He	1.0	4.9227095	18.377567	22.651371	-2450.263	-5487.6953	8304.552	247349.28
He	1.0	14.165339	4.8539157	14.098052	-6814.191	4284.0933	6085.2944	-111158.96
He	1.0	15.8139515	4.150944	22.19829	-872.5441	5576.9985	2189.8162	56008.406
He	1.0	15.510512	21.642778	18.591225	19.66226	4067.566	4048.6562	-23.73666
He	1.0	18.556269	21.14996	15.000382	4283.573	980.1797	-1079.0548	57.40497
He	1.0	11.660448	7.6554756	8.253691	5172.8574	-2469.2502	-3534.7146	-57230.367
He	1.0	13.118829	23.560173	22.238453	5388.631	6941.1865	-4193.5786	-921301.6
He	1.0	15.697913	18.151634	5.7804217	-567.41156	-585.46234	-353.3598	77.892204
He	1.0	6.6840944	23.63948	17.012697	-3313.223	2583.7124	-41.839108	285015.5
He	1.0	8.619834	22.608686	11.72551	-2830.0388	-535.7264	7311.86	97646.375
He	1.0	21.918074	19.055162	7.6805816	1819.9515	1018.0578	-3639.5261	2.6229345e6
He	1.0	14.553738	6.23776	22.842299	-866.81006	-3093.6382	-1175.7345	46.002632
He	1.0	17.336538	8.629006	17.896378	-2237.643	1986.5586	-3584.207	525113.94
He	1.0	11.705129	15.955118	3.752565	-380.89194	1389.8037	1986.2035	617002.6
He	1.0	12.312694	20.007513	8.585623	75199.29	52324.35	66911.914	3.4334528e9
He	1.0	4.3148103	1.9370037	3.7159238	22107.115	8563.379	-2227.8357	975.5985
He	1.0	6.439991	7.8128386	17.942608	7241.1216	-1127.7122	-3210.2773	333867.0
He	1.0	5.9864807	2.9499364	0.6235025	-6658.9854	-4047.662	4412.3906	2341.4119
He	1.0	14.904898	4.8356266	6.222252	-2251.5234	325.09512	2776.8975	69.28566
He	1.0	15.509523	21.882456	12.617447	-1376.9298	-5179.0073	4890.3984	-70209.6
He	1.0	18.071863	5.1730037	9.641617	5296.865	1729.4753	-1932.1743	1.1174725e6
He	1.0	23.596487	18.75881	21.755455	909.5463	-458.9001	-5268.262	1.4717368e6
He	1.0	13.370489	19.271885	4.3180814	-2529.4731	-9464.76	4773.1733	-1.397622e6
He	1.0	3.1991718	21.062874	1.8223938	1676.2649	3663.1292	-352.0575	292421.97
He	1.0	21.930706	0.00024455923	1.8304018	-3074.6565	3762.1855	1507.82	7.30555e8
He	1.0	12.190199	10.119016	16.402927	109336.15	-95580.02	21091.908	1.0300795e6
He	1.0	17.613123	22.989014	16.317797	1961.976	3461.6626	-2733.3535	0.5457221
He	1.0	5.535771	9.746061	23.923622	356.831	4297.7495	-3969.7468	-21.367928
He	1.0	18.488598	9.892244	3.4518938	4228.0923	1596.1846	-9590.471	973132.2
He	1.0	22.430351	14.285484	17.394333	3673.102	-2836.2317	-890.47577	106.82752
He	1.0	3.2725823	16.79506	6.001054	-8870.2705	4118.44	-1812.4453	-179.79
He	1.0	10.91955	17.994122	3.3955765	83866.99	-6986.318	74212.11	447582.97
He	1.0	16.804752	20.387838	0.74520415	17249.799	-9959.653	16011.806	465059.9
He	1.0	4.185917	21.960356	9.502866	-2204.552	289.09164	1874.887	42.90063
He	1.0	22.585098	6.195975	2.2030928	-4421.2515	-616.76294	-2274.0945	29.036394
He	1.0	22.769846	5.1183743	6.975193	17786.393	23296.053	25164.416	1.6542198e6
He	1.0	6.624757	7.987755	8.122338	-3323.5583	-932.32996	-4552.7563	-10399.845
He	1.0	13.97232	17.846148	11.395712	-5271.0825	-8253.648	4005.1057	4.7117175e6
He	1.0	2.3517265	19.481424	6.9437475	-2302.6777	-2329.2935	-2542.5513	4474.439
He	1.0	2.679951	23.564623	16.923454	1113.8519	22200.973	16161.861	148416.8
He	1.0	23.878471	21.025692	10.518155	-2849.8396	-424.74042	-1772.7343	1.2425745e6
He	1.0	4.569756	24.078737	10.696978	-3660.805	-1047.586	-739.8695	-25.508635
He	1.0	9.802043	5.1902127	12.69489	-3043.4324	-1259.3691	-8798.921	-87.39888
He	1.0	23.066519	1.5759734	21.371996	-5548.089	-3692.641	-1737.5637	-504103.8
He	1.0	13.568049	21.250319	6.9856143	-8174.545	3616.8108	770.0955	-78.420334
He	1.0	2.246047	3.0759678	21.088514	9948.618	-1409.0392	8822.916	4.506623e6
He	1.0	17.541191	19.04381	21.567453	-5868.4976	4508.308	-1295.8473	106836.484
He	1.0	4.3948126	8.659735	8.837543	1495.1913	5009.0664	4682.2905	-104.88019
He	1.0	16.767275	22.94571	1.419156	18986.66	-43758.73	-26950.32	2.4305057e9
He	1.0	9.912896	4.145505	17.650417	-963.4488	-1808.9375	-3170.556	46104.055
He	1.0	18.79243	7.1670327	5.557105	-35144.246	75865.336	-47291.938	1.0255025e6
He	1.0	15.0180645	2.0417585	18.969078	-1877.691	2481.7192	-128.94547	239.578
He	1.0	16.281437	10.097251	16.338667	4487.4863	-1354.8572	5062.073	1.6966229e6
He	1.0	0.91074616	4.472217	14.793742	-1234.4789	966.03674	1011.6882	4.1620458e8
He	1.0	4.211234	23.09714	3.8547332	-11701.035	11457.139	40622.62	1.6495909e8
He	1.0	20.136522	20.79246	6.7247186	-2211.4568	-1347.2842	3099.3472	-4.4516873
He	1.0	23.675425	12.795921	23.541752	260.46997	-2316.4507	-2288.2505	1.285101e9
He	1.0	9.242772	14.854927	7.7254796	2166.661	-31426.938	-73769.65	572674.1
He	1.0	22.19202	4.3599067	10.056456	1930.0615	-1270.1476	-1215.2053	5.78637
He	1.0	11.732172	24.037262	15.986896	-6038.04	-4033.0574	-11751.915	-399.84076
He	1.0	9.2316675	22.057144	22.557983	-3174.9978	-7255.731	-3299.4514	7.279985e8
He	1.0	5.475787	3.8434837	15.674034	-31851.486	40532.0	-50219.258	1.4463212e9
He	1.0	18.103365	23.284273	18.31252	-9867.233	2331.4202	-382.87155	-183.57362
He	1.0	6.678812	14.851845	8.973486	262.14386	-2537.6653	3913.369	-26.516085
He	1.0	19.758389	10.704167	10.295871	-6714.517	5922.8745	15240.688	1.8233655e9
He	1.0	11.107314	23.466095	12.040508	6869.92	2770.868	-1138.7333	54.988018
He	1.0	16.61997	19.63819	4.754999	-3609.673	2188.092	-4745.5576	101339.78
He	1.0	1.662226	15.002465	14.026428	8477.666	8559.746	22682.008	3.7701678e9
He	1.0	12.608269	2.981315	18.472296	-6762.065	6634.262	4080.6643	-90.11199
He	1.0	10.812267	0.11611215	22.723827	4311.5386	-10186.608	100080.805	4.4534917e9
He	1.0	21.00526	14.527576	10.412159	-78293.69	-73579.82	31183.443	7.805009e8
He	1.0	4.8026237	0.018969392	7.1366434	-4380.378	5865.7944	6027.685	1.3001329e6
He	1.0	5.6333413	8.262142	5.5533695	1834.5795	5432.374	-8551.508	-116.8897
He	1.0	20.639921	2.886112	0.9990075	-711.8032	148.72787	-1893.8204	9.235863e9
He	1.0	8.898922	13.227158	20.336592	3478.4766	-10264.566	-5148.252	-1.6695866e6
He	1.0	9.493308	9.881575	20.96896	6151.7793	-4442.8857	-630.8374	283944.53
He	1.0	11.538554	20.307755	15.9831	3434.9006	-6433.391	1784.4407	-54977.906
He	1.0	8.502349	0.44013798	0.110860966	-2631.5989	-759.8371	-195.26016	6.8609786e8
He	1.0	1.671664	1.9087756	18.839796	-1110.3445	-72554.06	-11515.555	8.2017623e9
He	1.0	8.203422	11.191311	7.5268326	3210.4358	-11467.496	7858.0547	23018.35
He	1.0	7.970879	6.918306	5.909579	-1957.0306	-8517.365	-7398.5312	-147.27959
He	1.0	18.94524	17.225233	16.125366	-4141.6533	-1654.1544	904.63007	1.8102416
He	1.0	1.7350549	23.735153	10.647071	-2725.8733	-1474.406	4421.3823	-139297.3
He	1.0	12.318245	2.0682707	11.952601	48446.49	17465.096	26019.717	140264.14
He	1.0	17.28493	22.766748	12.948615	-9746.886	14252.35	9268.486	4.042161e8
He	1.0	21.950535	21.178635	23.042849	8357.946	19655.22	25608.22	170849.1
He	1.0	19.952383	4.529954	17.394602	-5825.6133	212.29434	-3061.9072	-200590.48
He	1.0	9.139942	2.6438618	21.471878	-183.50345	2711.9941	7923.581	94522.67
He	1.0	1.1838777	1.8246317	0.9847075	-2302.074	-4550.546	-857.6676	380714.28
He	1.0	4.691999	21.257643	12.048047	-6662.15	-337.84802	6802.1035	183949.47
He	1.0	19.49717	0.24298571	15.880726	852.8805	-1716.3364	-6655.7163	1.8868732e9
He	1.0	2.9929204	4.589723	13.2632	-72258.195	25851.006	-13283.038	1.8410622e6
He	1.0	20.31396	18.92961	10.664301	-811.2374	4016.237	-87.387146	91838.42
He	1.0	8.918466	4.059169	14.119798	1425.5669	1822.0858	2519.4075	72.36561
He	1.0	8.82945	11.382902	0.4075471	-5580.1465	1956.5831	4065.0437	494453.4
He	1.0	1.388581	14.892188	18.686306	447.36023	-505.4478	1422.4325	2.818085e9
He	1.0	4.744565	17.849642	15.179045	1412.2272	-2612.4675	452.82086	6.0155988e7
He	1.0	14.619384	12.988547	10.553726	7642.7656	367.93665	6208.4897	3.7653584e7
He	1.0	15.00699	17.308714	2.00548	-108.51423	1534.2952	-414.32697	4.2510272e9
He	1.0	2.1734567	6.939284	10.213924	-623.32745	4100.412	-4998.851	143459.92
He	1.0	23.48313	2.8362083	18.904285	-3912.8052	1022.333	3117.472	2.3979343e9
He	1.0	22.81499	1.75401	0.92610484	1367.3221	2925.6675	-4195.3584	691045.44
He	1.0	19.334513	3.3536165	8.488478	-2704.773	4120.777	620.9747	1.8941458e9
He	1.0	6.974463	14.1732025	23.165161	405.08835	279.9101	2793.6948	142710.72
He	1.0	13.345949	0.19023292	19.90247	-6321.211	2358.8838	-5198.683	243449.39
He	1.0	10.368689	12.4838915	2.3665338	-855.7574	-963.8283	2817.673	2.1390728e7
He	1.0	21.772297	17.840532	18.285477	1139.0674	-1680.6794	-45.33715	638581.0
He	1.0	3.364586	7.804115	4.0174503	6479.4067	-2974.8362	-5636.198	-515431.1
He	1.0	15.570766	14.468818	6.17114	3647.0913	-8832.138	3262.5146	262318.5
He	1.0	19.474213	3.5474384	10.562525	2035.2886	856.02893	-175.39975	126392.83
He	1.0	17.337446	14.384631	4.7614675	-155.35883	1212.9822	991.0197	2.5814717e9
He	1.0	13.490706	18.833199	21.206686	1241.4181	2302.9592	392.68732	184070.52
He	1.0	18.745785	10.09188	13.137435	-1657.08	-936.43146	-6919.84	20435.373
He	1.0	9.859981	12.532332	6.8397007	-3971.4373	4485.313	177.83047	35554.457
He	1.0	14.053579	16.227571	4.2818584	-3630.059	-412.4877	-2129.246	862755.25
He	1.0	7.865973	1.15314	17.281164	-2775.0583	3967.0984	5546.744	-427300.38
He	1.0	5.9016724	12.291615	12.4374075	-3043.6685	1670.574	4343.562	125511.64
He	1.0	23.00448	0.83380497	14.563151	-4028.6191	72.888336	-2075.3862	5278.835
He	1.0	10.53597	22.005732	9.747643	-1822.8143	1845.2891	-6919.545	-562947.56
He	1.0	8.114712	18.648798	20.660515	2033.3048	396.6843	-3186.953	61.194218
He	1.0	12.69847	9.2084875	18.17301	-3650.105	821.3246	-15.5568	-32.621212
He	1.0	4.3240438	6.5891175	9.8102665	65161.53	7670.96	83201.016	1.0535091e10
He	1.0	22.188879	15.404384	19.347158	-574.76074	-1588.1906	5211.6904	-1.0143217
He	1.0	17.87692	11.452819	8.948043	6039.296	10442.2295	11252.926	5.2958184e7
He	1.0	7.656548	9.776637	17.908695	-1368.0172	3673.518	638.17957	2.753237e8
He	1.0	4.233087	2.2583425	7.1775703	-6022.517	-10644.379	-850.5522	1493.1409
He	1.0	14.522214	6.663073	8.413995	-9736.286	3701.3987	-23225.113	1.1397295e8
He	1.0	2.7961228	4.7116733	8.934645	-19802.148	-91146.555	39004.69	6.3658285e8
He	1.0	0.7664087	7.8478255	4.840923	-2240.3718	5363.499	249.68697	150504.55
He	1.0	11.305409	13.24245	12.550949	3726.8958	5777.684	2158.8936	-245712.86
He	1.0	22.129427	19.992445	15.181071	-75100.28	-89267.89	27504.572	861030.7
He	1.0	9.656629	14.517668	16.361225	-2012.6536	10153.766	4275.835	-779200.44
He	1.0	4.321697	14.228275	9.327147	3345.9172	245.72943	-5720.468	-14.087575
He	1.0	11.0404005	17.81521	1.035163	-13713.14	-9869.988	-12149.599	749552.3
He	1.0	14.241235	22.463722	20.851791	7553.0854	922.3404	1357.3086	7.677375e8
He	1.0	10.188751	22.32416	13.537044	-3265.675	-1954.3757	4385.7466	-79.13794
He	1.0	21.031715	16.04661	22.56136	25340.486	13642.193	5154.9097	149894.25
He	1.0	9.915341	19.084381	4.7762847	5283.229	-4203.458	854.2923	-422717.7
He	1.0	22.746506	3.2598255	22.927637	-1945.5249	-2787.707	215.86702	1.2932167e8
He	1.0	13.295297	13.680224	12.542672	-5458.1123	1174.2305	-3936.9858	-10216.127
He	1.0	12.989199	18.151999	1.28854	23167.95	4280.006	2151.7402	93156.6
He	1.0	9.533674	16.124971	15.109467	-4251.838	4192.3237	-2613.4375	537143.6
He	1.0	13.461001	4.437968	4.8272843	-1965.9641	1184.6765	4734.726	2.562659e9
He	1.0	13.023532	14.277191	3.9779332	-1870.2444	-6478.8076	-8813.421	-805740.6
He	1.0	21.18185	9.628064	18.283392	1492.4329	-930.4526	1156.1648	10236.933
He	1.0	4.5694366	7.9937625	19.324398	5913.8823	7981.9316	6618.636	-1.5812932e6
He	1.0	22.672745	8.089035	5.1084504	7822.6924	-820.2185	1094.5057	82.0765
He	1.0	17.641253	3.7593925	14.096787	8437.864	3092.973	2688.297	1.6825001e9
He	1.0	3.9809897	1.8864235	18.315895	-7286.235	2608.5598	1726.0746	-102.846664
He	1.0	9.516303	20.689812	11.132019	380.3266	-973.2984	4224.2417	249.6904
He	1.0	0.05964266	15.34336	16.8938	-5964.1943	-3998.4167	-2074.2007	237734.05
He	1.0	21.829529	9.6239395	6.182309	-1783.6703	-2002.9784	2275.4006	552459.94
He	1.0	1.7377775	14.356665	20.896698	6930.0225	2379.0144	-14409.563	-469.182
He	1.0	2.5022902	18.037832	9.223505	3622.3462	4327.893	980.7135	1.2229462e6
He	1.0	17.176804	1.767103	7.396108	12327.602	-11309.439	-5951.2383	113161.7
He	1.0	8.103033	16.695286	7.318679	-307.01645	3780.783	5428.449	5650.509
He	1.0	22.393934	9.975148	3.3417494	-2842.9136	-3899.698	-1562.9163	9.136464e7
He	1.0	22.18512	15.385897	13.932458	4547.4478	-4281.82	1009.84973	-75.01538
He	1.0	21.441435	13.633747	15.666069	1178.1941	-4310.1562	9984.218	-85623.87
He	1.0	10.255628	12.365459	9.52953	24.39859	6482.1704	2655.4177	555356.8
He	1.0	16.946312	14.456784	0.15373215	-5425.7773	-209.3118	-4796.295	276454.0
He	1.0	6.5154686	2.1926208	8.739233	-7384.9727	1243.0529	-4717.225	16147.296
He	1.0	7.799382	9.252775	10.308303	-6420.5605	6352.9546	6293.998	-1.3021291e6
He	1.0	9.291964	16.64943	22.094484	9911.895	10390.954	24608.996	693638.1
He	1.0	10.542383	2.0018606	3.2309163	-126.93366	2104.9924	527.3776	599978.25
He	1.0	15.820737	17.318642	19.04135	-2949.7378	327.98907	-1955.6823	-81151.51
He	1.0	20.421951	0.73659384	0.56324977	5747.8433	3912.6445	8250.349	1.7992572e9
He	1.0	4.5974283	15.353422	7.6123977	-9547.79	-1341.1549	-1738.4274	2.2002414e7
He	1.0	13.806231	8.744373	9.349945	51564.19	-27071.26	21202.684	4.7386404e7
He	1.0	6.7818594	23.964167	12.077387	3358.6682	1473.3455	250.58063	28.238804
He	1.0	3.3872488	1.0060698	15.834959	879.5329	4678.6157	4563.616	2.3555502e8
He	1.0	11.22733	1.2106762	5.249862	-574.76135	-476.11258	-7658.153	-140017.61
He	1.0	2.1928926	8.460085	16.19053	23372.69	10186.653	9149.649	6.0401085e9
He	1.0	5.013364	2.5577466	10.424503	-2017.9608	2737.986	-1782.7233	3.1314692e7
He	1.0	17.307985	2.6347933	12.478131	-5825.703	-4809.9956	-3324.4824	106349.8
He	1.0	10.621828	18.167461	14.693417	782.3043	-5272.6597	4102.8955	247591.48
He	1.0	0.8967702	22.85817	6.3013506	2792.6226	2776.111	2900.25	669408.9
He	1.0	4.109353	0.10886072	1.3798236	-827.4072	-2059.3125	-6148.3667	9.937124e7
He	1.0	9.547952	19.847008	15.790737	-8619.281	370.94412	1367.5098	-846397.7
He	1.0	9.187343	13.486123	22.299543	-1586.0774	-567.8746	-496.7172	67542.19
He	1.0	1.7341167	18.53493	5.2931666	-5069.2964	1466.4569	4850.6816	376131.7
He	1.0	2.7141705	11.273205	8.948218	6010.1606	29274.996	60310.195	522485.4
He	1.0	24.011375	14.564742	20.049047	7365.923	431.2471	-20961.365	129774.13
He	1.0	2.611585	10.220456	15.020076	4658.8213	8363.52	-3607.34	-1.1873508e6
He	1.0	13.112193	11.366481	6.4127326	-2648.8132	-2557.2332	769.66693	1.1679955e6
He	1.0	14.765749	22.004496	1.1796564	3450.9785	2894.755	2400.4749	-231717.23
He	1.0	22.271082	5.74981	4.275128	6098.876	5563.933	2024.6367	-575961.4
He	1.0	2.034847	9.378743	21.654392	-3528.2314	2686.0588	-3528.3948	377.2663
He	1.0	10.686395	8.996701	23.960335	2835.7034	5128.1167	-5711.2583	-329466.34
He	1.0	12.51714	18.626944	10.269238	1429.7428	-8338.299	-1176.1868	601.07745
He	1.0	15.702259	21.262777	6.261206	7217.9766	8695.484	-3487.7268	8.9338424e7
He	1.0	0.4993911	9.729704	16.859358	-1051.3643	4440.164	1022.6746	5.0807142e8
He	1.0	7.3795652	3.0434024	10.327621	-5757.241	-3441.6355	-3389.305	5975.16
He	1.0	3.532022	3.5106084	17.224903	1270.1115	1687.9967	1342.3408	102.64366
He	1.0	21.296854	20.482828	9.447362	3626.938	-108.59022	439.45923	2.3892065e9
He	1.0	8.910964	7.584218	8.420631	-3058.3538	-3853.3386	-3092.3572	326014.25
He	1.0	12.70842	20.00121	2.5545635	56526.61	-61857.887	20521.66	7.997439e8
He	1.0	5.91766	7.7977223	14.517496	3834.4656	-4892.215	11666.189	3.0626637e8
He	1.0	7.8310957	21.432726	19.204496	6352.2183	-62.539948	-5662.3755	-671822.6
He	1.0	17.58304	8.51651	23.848383	5367.6465	19687.178	-4154.5557	821352.0
He	1.0	10.366854	5.209881	22.31956	-24578.14	-13278.346	12850.652	748029.6
He	1.0	17.587755	4.9103518	19.678461	-4292.4214	2841.8877	-4479.756	2.4733642e9
He	1.0	6.0936413	8.278843	12.589422	7469.7227	16214.868	6757.3525	301493.03
He	1.0	6.7841706	0.37475282	22.762148	-2477.425	-2213.6904	2904.381	-34.02255
He	1.0	12.587029	15.076478	6.137406	2615.1028	-7250.895	-697.18866	-136.3362
He	1.0	19.217777	20.437447	21.255238	18811.502	-20081.254	-14261.912	453779.97
He	1.0	19.816084	6.6152177	15.45043	8423.124	-6157.2363	-4589.824	133140.03
He	1.0	0.047331855	21.218124	7.6030464	-2817.8555	6978.217	-17166.207	65718.69
He	1.0	12.074652	3.4430993	10.461409	-6048.287	594.7351	-1629.6987	98.79359
He	1.0	19.344002	23.991655	20.006239	8260.804	-176.44992	-1508.1772	1.3577277e7
He	1.0	5.3704696	18.25846	17.312712	-4481.717	329.24384	4089.345	-325433.47
He	1.0	12.0429535	13.56716	7.386303	-112.1001	-4615.768	-6155.855	6462.269
He	1.0	21.43651	19.951677	21.564524	-8342.783	-18110.191	-18723.719	162291.31
He	1.0	8.762634	8.108648	12.492471	-1801.1371	-3102.8413	6317.14	656.626
He	1.0	2.2411287	13.036219	15.854804	-61.944225	-1126.9207	1805.8328	1.539651e6
He	1.0	5.4970546	17.45382	5.202544	-2012.577	1290.377	-956.2434	1.0243456e8
He	1.0	20.96869	15.744418	7.5706573	6699.6963	508.99936	5611.029	397596.34
He	1.0	17.006668	6.7367783	18.814413	-3427.7258	4710.905	-671.21246	532742.9
He	1.0	4.277606	15.86285	1.6934781	740.44055	1529.8341	4527.0356	7.052238e8
He	1.0	7.9006925	3.7874012	3.658307	-25608.973	-42600.44	33459.277	209237.88
He	1.0	10.956491	3.0263155	6.585487	-5092.924	1787.6956	7866.4873	4616.3926
He	1.0	19.502289	7.2548966	23.53481	3923.663	-4124.13	-2520.8584	-15.674611
He	1.0	15.414322	14.400701	13.527561	-9992.713	-16006.869	9109.651	4.6383043e8
He	1.0	9.825682	23.24915	3.5753138	-6099.704	-5102.884	2031.1743	2.9176458e8
He	1.0	1.6129267	7.4804306	21.108175	-7733.2817	3075.9856	8360.463	1.7405659e8
He	1.0	7.805092	6.673592	22.067207	-20193.879	-55676.637	94017.086	1.3684735e9
He	1.0	17.478064	10.812702	7.0985975	-4376.5386	4227.94	-5934.3535	43158.805
He	1.0	22.7721	3.3125076	11.692057	-291.00934	-3841.6978	3680.3267	149.32414
He	1.0	14.435841	8.892889	13.524588	-911.443	-2324.7285	-10051.833	-1.2031378e6
He	1.0	3.813188	10.238204	22.993862	6559.3486	383.89435	3034.7964	-509091.6
He	1.0	20.628878	13.82944	13.248116	3268.5615	2719.647	-2585.0547	93770.95
He	1.0	5.1769376	3.4749308	4.6666694	-3751.9668	568.3394	-7652.857	65579.93
He	1.0	16.607952	11.566934	18.669481	-4402.7876	3714.364	-296.29858	471372.75
He	1.0	20.325468	14.664145	0.25785047	-35489.684	42400.934	38990.457	3.066015e9
He	1.0	11.860381	4.802346	12.240718	-4731.0337	-775.8903	3663.2134	4.53605e6
He	1.0	12.126707	11.86069	14.672069	-1014.32306	-5085.8574	-8648.679	1.819951e8
He	1.0	0.1941541	13.263887	13.93114	-3418.1123	6147.3716	3052.041	397730.47
He	1.0	0.5742902	23.668985	15.971815	-5489.867	-10322.658	930.28314	-206.94453
He	1.0	11.723238	23.830942	3.3567374	7092.6865	-896.8395	1024.8732	197751.02
He	1.0	11.574554	10.671835	2.7532089	-3813.4238	-4970.4272	-3658.5054	-556825.94
He	1.0	12.784385	9.965609	20.234905	2434.2373	-7860.0186	-4051.8518	8.504646e7
He	1.0	19.13788	13.542147	2.1653547	-4266.286	15427.411	7269.274	2.9944483e8
He	1.0	14.775495	8.332965	22.800537	-714.73236	-6052.9565	-49.51639	225715.14
He	1.0	7.3107805	6.8171606	12.000322	7373.5234	-14510.281	-3073.021	3.674457e8
He	1.0	6.070292	7.728176	0.19084892	-2774.7175	-2426.1108	-2248.9368	49.867245
He	1.0	21.483091	12.052772	8.000325	10034.042	-2693.6082	17668.672	23797.281
He	1.0	23.351803	21.493801	16.900328	-695.0594	2105.448	5293.7456	-8.919689
He	1.0	20.755579	9.730265	8.869847	7361.125	-1221.9194	-2755.2595	77295.34
He	1.0	5.1689787	8.893888	1.6185515	517.0408	5879.1196	-2225.142	-11.358539
He	1.0	18.826698	14.19371	16.915705	3265.4875	9464.738	-3402.6057	2.3365245e8
He	1.0	9.560163	8.090795	21.987947	-1892.7615	-6412.3613	1593.005	1.9858578e6
He	1.0	15.773822	12.476804	12.872282	-212.80106	5835.2686	885.45294	733444.94
He	1.0	12.503215	18.442352	23.175722	6520.394	-3128.6646	1145.1462	403020.3
He	1.0	5.3682933	16.079332	3.6533198	1023.21045	3074.6912	-69.384674	4.9009978e8
He	1.0	22.2267	12.571804	5.868821	-698.6982	-2039.9576	-3763.79	-49144.22
He	1.0	5.6217165	3.083909	19.63358	3107.0884	-1648.738	6358.0947	-195326.28
He	1.0	12.777876	1.6262763	0.19565989	-4117.0234	-835.8326	2045.7072	3.6019364e9
He	1.0	15.951189	0.08085301	17.110626	2290.2417	521.9809	-3297.5342	245000.81
He	1.0	1.031427	21.094637	4.1049294	-1497.9733	-745.312	-949.3073	142768.22
He	1.0	21.610447	18.280258	13.858894	6040.3564	-1715.0654	1005.4081	94103.53
He	1.0	18.987087	0.07398163	8.848774	-1473.3815	1776.6742	1696.7474	2.6792029e8
He	1.0	11.897637	4.823644	23.658192	-3164.1355	-1615.7047	-1143.0093	2.8337203e8
He	1.0	10.277081	6.441211	19.872765	-36691.066	12311.536	39746.65	222722.53
He	1.0	5.9973173	6.4159365	2.5594802	-4818.0913	126.11369	4892.2456	178732.84
He	1.0	6.691284	22.59095	4.6334543	-7180.4536	6613.4395	-938.6982	-68.64516
He	1.0	2.9511123	8.750071	10.551699	3628.5586	-768.7893	-898.62213	5.8032097e9
He	1.0	22.992092	5.765855	22.145197	-1002.6635	-9724.336	3229.7158	-177.92009
He	1.0	15.34432	1.9119627	23.38927	-23558.807	-9711.769	-4936.617	8286.599
He	1.0	10.715388	18.345707	11.12872	3795.7134	-2737.7153	-603.25085	33819.145
He	1.0	16.358202	12.87189	9.23284	-133.58876	6544.038	4147.532	134670.55
He	1.0	2.6159286	23.918665	12.675532	4063.172	9093.83	-2387.1436	-230.11067
He	1.0	1.2938582	19.961454	14.535495	-3575.47	5826.327	2785.4165	-548432.8
He	1.0	19.5782	9.587643	7.0832214	-3051.0618	2701.5437	2676.408	11206.471
He	1.0	13.449814	12.067569	19.709835	5513.2505	11354.544	-160.51459	5.7147944e7
He	1.0	0.6798084	12.645919	20.702711	-2915.6545	630.9072	-682.81976	116.53801
He	1.0	17.965433	4.473648	6.9267893	-4027.846	1287.0256	-1841.4404	233938.72
He	1.0	3.248248	7.5993843	12.355221	-33174.32	15402.409	-4657.8164	1.9539333e8
He	1.0	23.667545	16.107782	11.698311	257.73782	1410.9685	-2910.845	1.2742441e6
He	1.0	20.483154	18.292633	6.356024	-675.5876	2956.498	-2534.2007	-73282.33
He	1.0	0.78480107	1.8308645	8.851014	2918.6565	-233.24686	4645.1484	65.866936
He	1.0	5.826301	22.26246	19.044596	-879.1464	-1014.02515	2376.0144	714011.4
He	1.0	8.670814	2.038409	4.7545156	-7234.8955	-11491.934	-4222.717	1.2852439e9
He	1.0	15.25371	12.2512045	1.5402163	-728.9942	537.12195	2201.9875	556949.9
He	1.0	15.335907	4.1397567	3.5463493	8932.91	2717.8389	-164.99644	292310.88
He	1.0	0.53519356	10.019867	22.810995	5063.804	-3476.3567	3322.8896	2.6530378e6
He	1.0	4.810265	16.570429	10.249257	-4634.4585	4821.6357	-3294.7063	-52.241653
He	1.0	8.48447	4.86937	20.890923	-2779.4485	-4638.922	1242.8314	341456.06
He	1.0	19.005192	12.310724	17.55694	2853.9124	-9495.368	991.61597	228350.83
He	1.0	19.287014	15.243557	22.03954	-23298.418	-48138.348	16940.055	3.6041454e9
He	1.0	19.773605	16.412127	14.155894	-4554.024	-302.56842	-3481.277	9767.294
He	1.0	1.6063111	5.308246	3.700522	-2101.995	-482.69052	-6234.082	3.3931098e9
He	1.0	4.850691	5.0971665	19.205755	-790.7394	1515.8112	-5823.342	8115.4126
He	1.0	11.738699	4.9947224	6.174321	8384.739	-11051.686	9757.779	-543.488
He	1.0	23.837193	14.214589	22.001476	-4642.825	-4466.537	13660.484	6.3661824e8
He	1.0	23.787586	1.4757385	12.009746	-4663.473	-99.77677	-3309.1409	1.9295114e6
He	1.0	23.69528	0.30995506	9.551024	-1517.8586	2709.6716	-116.276726	1.9715046e8
He	1.0	0.7956257	13.241888	9.384525	3307.8467	-976.3374	-876.5075	185637.62
He	1.0	6.9874315	10.009078	12.038178	4572.787	-1654.1915	-1258.794	109.19457
He	1.0	5.0711503	16.620674	13.462939	5489.493	1000.6091	-3177.6643	-54.4682
He	1.0	9.81562	8.368987	19.69533	32889.625	27504.615	23730.309	4.8439907e8
He	1.0	3.26705	0.39679015	20.209124	-2518.239	8896.004	2103.8462	1.4630824e8
He	1.0	0.7533077	10.154137	0.7293485	1531.203	-2119.7053	1130.7397	1.0140315e6
He	1.0	20.495413	22.259327	20.186222	22601.824	-43496.965	-113666.81	1.2130337e10
He	1.0	6.9824376	3.1141977	22.289425	2690.5024	957.2462	-1036.3037	183125.92
He	1.0	22.491947	19.923418	11.765783	-2500.4949	2089.5208	3585.1865	-48.106194
He	1.0	13.336905	18.842892	15.196003	-3306.5796	-1588.6134	-2743.2568	32709.338
He	1.0	20.741041	2.827658	15.959576	-2675.869	-4689.234	-1210.3457	3.7521152e9
He	1.0	11.691745	0.052325953	18.508268	-890.824	4561.4927	-499.15488	5.563224e7
He	1.0	14.784533	19.167025	2.7785313	-1565.8224	175.13107	-2937.9155	34.17114
He	1.0	17.846373	6.3965063	13.928205	10469.804	12502.401	-2608.5552	3.8809554e9
He	1.0	9.288754	3.510453	19.6627	-4136.883	-357.27496	-2516.0034	15403.013
He	1.0	6.587177	23.233355	20.779243	412.16464	-1414.0997	71.9109	285.2802
He	1.0	10.94139	2.104054	17.080124	6030.2344	2610.4944	-50988.477	987273.6
He	1.0	19.615967	20.16589	12.572569	1931.1862	-1953.6249	967.56573	1.1414282
He	1.0	11.966635	21.262266	22.275429	444.5003	2003.3601	-1749.8192	567852.0
He	1.0	22.907204	0.74574155	7.766234	-1023.24335	6093.503	-5698.8774	123460.8
He	1.0	14.273125	14.066203	8.902429	3028.496	2449.5767	-5735.6665	-29.787241
He	1.0	11.441524	2.974553	15.250877	-6956.744	7489.3804	1461.8739	-220.94548
He	1.0	10.003614	11.687638	22.875963	832.4743	3166.6504	-7552.036	1.390538e8
He	1.0	12.457973	12.033169	17.852983	-2457.9304	1415.8717	4517.8516	65.71072
He	1.0	23.714615	6.0843577	19.467049	8584.778	38611.984	-26164.555	5701.5996
He	1.0	16.923819	21.890257	4.6036143	-1949.0222	3381.619	-83.00942	6.412297e8
He	1.0	20.628017	6.840697	2.3781385	-839.7713	4680.655	-4565.946	4.7265735e6
He	1.0	12.776471	0.9222627	7.7140183	3174.1707	-3563.751	-2869.627	-54.23179
He	1.0	14.781008	14.372411	2.2473598	-1975.1777	-6645.634	-2981.3113	244.4445
He	1.0	15.0813055	15.266101	20.173117	-1383.207	-3435.8267	391.15707	61.819096
He	1.0	10.1182995	21.740292	18.342194	-474.05457	-263.50357	-4266.8135	144330.25
He	1.0	18.032137	17.310806	22.637054	-208.08075	-1950.5594	13073.773	6.495952e8
He	1.0	14.322934	10.4780855	18.264772	6987.769	2124.643	2613.1448	7.748628e8
He	1.0	21.325706	0.8338907	19.133177	2753.5977	-1271.3301	1182.6576	392810.03
He	1.0	18.229183	7.70239	15.980837	16923.41	-28847.715	56319.12	1.2252672e9
He	1.0	18.063866	14.592136	13.446104	14574.491	61684.61	-69808.28	2.8697283e9
He	1.0	11.825838	15.020501	11.626888	2884.733	380.74594	902.64233	190424.64
He	1.0	15.550599	18.705908	15.323322	3345.1243	10559.19	2028.9146	-324379.5
He	1.0	13.0852785	8.12672	16.401962	5623.675	2492.457	2400.2942	5.7824216e7
He	1.0	1.9067255	3.2497215	2.3405561	6598.079	3966.583	2505.4548	-109.21869
He	1.0	8.777071	9.060318	14.590281	76.670006	-3029.8804	746.768	1.2153361e9
He	1.0	7.019899	10.475117	22.779562	1534.7614	-3608.278	3625.3623	7.786084e8
He	1.0	5.832804	17.72669	1.0340021	2366.116	-2677.0623	-222.64333	3.8834289e9
He	1.0	6.5992584	0.48153225	14.865804	31089.074	-26667.84	1117.126	4.0993203e8
He	1.0	16.182941	0.5956255	22.163637	3546.7366	35793.617	479.85178	4.2104645e9
He	1.0	12.478491	17.809526	7.547717	-1696.6364	3203.9104	5548.8716	2.6759583e9
He	1.0	2.366834	11.926395	21.551853	-63128.137	22616.365	54392.71	4.2888433e9
He	1.0	0.0520846	11.05275	8.93545	4619.8345	3540.0996	-3359.5913	5.981069e9
He	1.0	0.106849834	12.034092	6.8581376	1937.3019	669.4011	-1027.8567	712506.06
He	1.0	10.656013	20.012863	0.7630628	4991.1084	-2957.5105	-4637.419	-47.523396
He	1.0	6.2582874	15.78652	0.16028997	-1106.1393	-3392.361	5704.4346	-219068.25
He	1.0	13.895365	6.0694966	16.06323	-449.13257	-10441.793	4335.9385	946370.56
He	1.0	18.33214	4.307633	4.9658027	5705.4727	7049.0796	-4116.395	348.17004
He	1.0	18.599516	4.5921035	22.47241	-9813.771	-62000.0	46429.547	135348.95
He	1.0	6.113565	22.839514	10.413458	5390.4194	-5043.601	-1607.263	-42.862064
He	1.0	4.040318	1.4755543	12.003219	5901.7207	1403.1246	5721.1206	8.790367e8
He	1.0	17.969212	9.626453	21.190578	873.28156	-28688.006	3280.4424	557469.3
He	1.0	4.559495	16.364092	20.58325	4413.6597	-2030.3501	4353.421	3.3668768e8
He	1.0	2.2278848	22.684372	7.9347844	3143.8794	4137.834	1583.2344	-46.396587
He	1.0	11.0089655	9.224561	13.632998	5146.363	86.17297	-2179.568	458097.9
He	1.0	3.7462113	7.9814744	23.579512	8298.57	-2778.7566	1870.5803	7.917544
He	1.0	19.92884	18.568407	19.648218	-4893.2324	980.11615	-4448.6455	-321530.25
He	1.0	2.6540558	21.773657	16.056292	4822.299	-22792.332	-16000.465	115731.37
He	1.0	23.756298	10.229638	20.16618	2623.2634	-5869.1997	7013.996	841748.0
He	1.0	6.7821145	18.271145	7.7157707	-46.028454	-1966.8784	-5572.33	-356711.9
He	1.0	20.442142	16.247028	9.505227	-76269.66	17008.68	-12045.485	3.3077008e8
He	1.0	14.993735	19.575783	7.061642	-5680.2583	-5230.1387	-5227.082	155649.88
He	1.0	22.208414	4.805713	17.502306	-1916.777	-4451.3145	118.99974	1.13027864e8
He	1.0	16.129803	18.267454	23.457726	9103.113	-3203.9084	4657.933	1.5123e8
He	1.0	5.6653214	20.19899	14.567755	9621.149	1034.3843	-5444.7266	-302.24515
He	1.0	16.27816	8.086206	12.582397	-3737.226	1683.9484	1691.9908	2788.7534
He	1.0	19.496164	2.5474055	3.3407984	-59602.28	-7735.8066	-15798.885	1.4086689e9
He	1.0	0.53885126	19.787159	8.902593	9908.021	-11683.374	10382.742	1.0554951e8
He	1.0	6.570751	11.531418	16.794659	1254.464	-7860.911	-841.02856	448964.47
He	1.0	0.49416786	20.159594	1.5303308	2752.2676	8836.775	4460.244	61.120773
He	1.0	22.501936	13.374278	1.8626739	-12891.045	-64795.082	-38230.293	1.0474492e8
He	1.0	8.273516	11.404113	11.15031	3058.5361	-2470.9019	-3740.3293	79.97353
He	1.0	0.72970915	7.6076136	23.333702	58917.285	-23918.586	37057.594	489550.66
He	1.0	6.563573	19.640879	21.524364	-5348.5737	-587.75574	2675.916	-35.330757
He	1.0	8.448012	5.0330706	5.3669047	-4853.923	-6524.581	-3153.3262	-610828.56
He	1.0	17.661045	1.959622	9.392948	-6375.1025	-8260.704	-9622.574	-366.70508
He	1.0	13.634356	4.042978	0.6303575	341.31094	-2341.583	339.7394	127305.484
He	1.0	14.801268	22.83668	14.248834	959.1633	-1848.9863	3483.533	5054.773
He	1.0	8.094593	18.689749	9.386585	1785.1653	-3848.07	-1144.1907	-28.335722
He	1.0	8.053601	7.461626	2.391805	-1430.7019	-3262.1187	3627.622	9.6778784e8
He	1.0	16.610397	9.660968	10.43596	1540.159	2188.4216	570.71893	300029.34
He	1.0	10.61629	23.154026	5.473332	147066.52	-83682.484	-29509.06	9.752097e9
He	1.0	23.214048	4.707804	13.707491	142898.16	75624.6	-19902.94	2.7356923e9
He	1.0	3.613954	11.170586	5.79568	2590.2422	-442.54642	-532.6421	97.19054
He	1.0	21.670189	15.879492	4.992611	-51449.957	34647.918	-3924.6677	7.821698e7
He	1.0	10.450814	15.817258	1.6434208	-12228.996	45752.746	68646.07	172230.42
He	1.0	21.259113	16.680708	16.514753	-9636.516	283.29477	2268.6567	-136.83493
He	1.0	17.673094	3.0243413	21.216223	7821.178	2314.6023	-1285.5869	-126.720764
He	1.0	5.132808	13.069231	5.0687985	2246.029	2063.752	-1609.4274	26442.977
He	1.0	21.269627	22.700985	0.22665131	-1503.798	1408.6656	6728.7456	1.0908227e9
He	1.0	21.689543	19.340763	0.9439974	21.134314	-1478.7412	717.81476	406071.47
He	1.0	3.6880035	22.56352	19.811155	743.11957	-2246.5732	3448.7458	104699.74
He	1.0	13.181243	6.3285794	5.667168	4474.455	6049.731	-2554.1355	299253.06
He	1.0	9.386217	14.932705	13.468609	-1057.5681	777.7751	-2474.1187	2.7363336e7
He	1.0	4.737669	1.0883336	9.016692	-10155.411	4240.2896	-4843.3433	-339.54556
He	1.0	8.501609	8.956368	5.877537	1177.2826	-3756.7412	2234.4417	99.4419
He	1.0	18.205902	21.820854	22.263393	-9020.044	15754.158	11186.38	4.6240784e8
He	1.0	11.862893	20.541632	10.567854	4593.7847	99.72697	3078.5293	-150495.78
He	1.0	7.011793	18.560736	2.4184487	691.6553	4320.8667	-1447.3563	30988.541
He	1.0	16.266817	12.762229	16.138592	-3853.098	-2952.957	-3192.366	549688.2
He	1.0	22.584408	11.33807	1.0687023	7818.7476	5268.657	1553.939	-758466.0
He	1.0	15.484257	2.663215	14.418092	-3918.126	34128.254	28730.066	5.832772e7
He	1.0	3.6105094	6.4716887	14.165416	4763.8765	-1563.4381	4407.6445	705364.06
He	1.0	14.232783	14.120077	21.689594	-7757.9224	-2209.7468	-679.55896	38611.15
He	1.0	17.40391	10.090075	1.153951	97.23308	3863.4814	7.0630603	55251.227
He	1.0	4.505113	18.225248	19.118628	3009.423	-2875.4785	1783.8733	290.1921
He	1.0	19.298496	20.647448	4.308636	-4375.8438	1118.6205	8136.9395	-958847.8
He	1.0	23.937353	12.876749	4.497363	-4712.7476	-5016.583	-5854.952	362205.12
He	1.0	7.2200594	14.950233	6.907158	-926.4613	-9856.029	5600.366	20811.309
He	1.0	4.1142454	22.74382	5.830124	3478.574	-216.35121	4376.7896	54181.633
He	1.0	4.9046974	6.514132	12.558212	24650.22	-6546.4033	2550.95	8.46598e8
He	1.0	14.91726	22.307089	8.114104	3473.2205	-6962.0415	2091.2288	15427.058
He	1.0	13.474108	1.809204	15.106899	-4437.3936	-763.19763	1276.5647	313.26636
He	1.0	16.826143	1.407639	0.8181511	1869.311	889.47034	1169.7042	1.7494276e6
He	1.0	18.354404	6.150524	17.291042	3039.421	2532.9429	1699.3811	1.5645622e9
He	1.0	18.383818	16.073883	9.695653	-26971.342	73964.21	20827.762	923325.6
He	1.0	14.204452	18.741665	18.871538	-14578.003	2952.0764	-2261.684	-499.9777
He	1.0	15.11681	9.449384	4.399736	3954.087	-1541.4136	942.73706	788014.6
He	1.0	17.894905	4.8303957	11.98841	-99883.52	42526.207	-48694.746	386141.1
He	1.0	9.81943	17.691477	16.732246	20795.041	8670.621	-13857.635	1.8437051e9
He	1.0	17.167992	20.78559	13.144714	-3127.2761	-7887.57	340.2184	4.547378e8
He	1.0	11.775534	6.9853654	23.699827	-3164.8865	2549.3296	-3793.798	26.41022
He	1.0	0.6611102	7.277825	6.887193	-2353.6897	-6212.285	-152.27583	-437507.72
He	1.0	4.1500382	6.8698955	16.841183	-1730.2717	-6219.84	515.5548	-312101.97
He	1.0	8.391272	20.916561	17.188461	-14625.989	36263.266	-42863.31	81405.78
He	1.0	16.957884	0.9745331	20.029547	-13942.214	3997.609	-20295.93	1.7761513e9
He	1.0	2.605453	4.010747	5.1999555	2492.8674	-3665.0383	-4928.02	-425508.28
He	1.0	4.5762205	12.244414	10.930372	-15829.321	-76608.875	-13766.2	2.2835358e6
He	1.0	10.598771	5.036982	3.7479906	13128.317	-42392.582	-62762.64	1.04647006e6
He	1.0	7.8998003	13.364659	14.991759	3729.8176	-3912.5415	-1059.379	52.263763
He	1.0	6.2174993	14.55929	18.77099	-1956.8607	2450.157	-970.0589	4.0854726e8
He	1.0	10.065998	3.4615133	4.850007	6789.718	1682.0381	1853.9584	54261.637
He	1.0	6.901981	14.732653	1.828063	-67215.12	45168.207	28859.406	2.07902e9
He	1.0	6.634237	17.416565	22.25945	51159.426	76881.19	3599.8806	123274.51
He	1.0	21.438606	7.5836134	23.133423	-4300.618	461.96875	-1292.1011	206445.42
He	1.0	18.572344	18.44249	7.0314217	14842.592	47235.48	121305.92	7.470075e8
He	1.0	10.702869	20.128988	14.098521	4355.5566	-5629.9575	5975.7876	171.9367
He	1.0	0.96544623	3.6836135	12.950973	5880.6274	-4264.7817	2184.4304	-82.74572
He	1.0	19.72413	1.7650266	14.451831	-6408.2085	-5084.2915	-6283.4478	-35.665386
He	1.0	17.541761	21.113373	17.377975	922.965	-3939.519	-1549.219	-124670.875
He	1.0	23.134045	21.537928	2.3105383	-456.36893	-3734.3394	-3717.4543	233820.39
He	1.0	12.902647	3.1089673	13.555966	6043.708	462.05835	298.33395	-184042.45
He	1.0	2.9853215	13.844757	17.78587	1230.4591	-1438.7899	-6670.064	-82.08177
He	1.0	0.38303253	17.784628	2.6929193	-9250.327	9589.307	-2639.583	549531.44
He	1.0	18.401573	9.976791	15.97515	5065.5034	-37.86029	5167.7524	59945.195
He	1.0	5.651625	14.455453	14.684651	4384.914	-594.5387	4285.4243	37.733784
He	1.0	17.086245	0.92981	15.581279	-1437.2788	1067.2051	-2002.3844	2.6087334e9
He	1.0	18.933994	14.521177	5.9696813	722.74176	2716.4277	-5082.324	-209.9921
He	1.0	20.937237	13.097917	23.321745	5263.6147	-1436.4598	83330.945	7.373434e9
He	1.0	18.207878	11.529357	23.35655	7.998734	-4041.483	1267.484	-4.0306344
He	1.0	0.5799678	16.28643	22.836195	-7502.761	-6331.066	-1894.93	-185.54526
He	1.0	23.5021	18.525831	10.021646	-834.45856	2613.3171	-10175.446	-130.33195
He	1.0	12.639067	11.537884	21.456589	454.40045	1931.0089	9301.944	32834.855
He	1.0	0.02352805	23.759129	12.826313	3321.3052	-10023.391	6778.7417	2.3375509e8
He	1.0	17.936327	19.277802	8.711444	-12306.03	22542.316	27646.697	8463.224
He	1.0	11.6517105	22.155148	16.982384	2616.6099	857.0192	3840.039	82.789215
He	1.0	12.481898	6.4061675	11.219982	-4440.399	3085.4414	3293.9724	1.9302908e7
He	1.0	3.3719897	11.381488	16.483818	331.00446	-656.4559	1596.014	457.52905
He	1.0	15.414988	15.260461	10.25409	-1773.5135	-8335.021	-4064.0789	-145113.88
He	1.0	1.0392644	1.878778	22.917294	779.6336	-2395.7012	5887.168	381.36746
He	1.0	16.73387	3.3445418	5.6838064	-7652.64	-6715.737	167.49446	414.4759
H	1.0	15.944265	3.371624	0.49016994	-257015.56	-197019.73	4064.27	-1.7883352e9
H	1.0	7.0263996	12.714056	6.0001984	360509.2	218015.25	-439463.88	246335.03
H	1.0	15.503643	7.3905377	4.5570908	-357260.56	-288811.28	-412933.2	350961.1
H	1.0	7.6523094	18.616756	13.275489	278340.84	160860.28	-386421.78	379963.97
H	1.0	22.027084	3.6118221	5.833904	-314901.75	-190245.55	-129851.7	-1.1226668e6
H	1.0	17.958069	23.820457	24.05278	-419568.34	-139303.72	-604812.5	-6.438104e9
H	1.0	20.095766	5.2374454	6.237049	-34750.523	105104.125	-420188.38	3.6511194e9
H	1.0	19.681118	6.692106	9.537953	227945.48	-169910.92	-387593.88	-1.3541458e6
H	1.0	20.012506	10.504977	2.2861412	-292185.53	42734.21	-66485.89	3.4301914e9
H	1.0	4.676672	10.08353	18.893982	453294.06	-70324.09	188299.94	5.000342e9
H	1.0	2.6551566	15.7154455	22.925392	232086.64	353559.03	-66210.45	-180601.19
H	1.0	4.8546653	4.059775	8.766473	637563.44	140063.69	-39195.906	-1.7255451e9
H	1.0	3.9497757	2.692229	23.694199	-82452.84	177064.64	-494532.72	-526003.4
H	1.0	6.7040052	11.081016	3.7711642	-224264.88	-383076.94	356360.1	-958182.0
H	1.0	10.859744	1.839632	19.048405	-110626.69	-85474.66	-8246.497	-6.323659e8
H	1.0	2.433653	5.4692836	15.914838	131233.95	645170.4	-199064.34	-9.97316e8
H	1.0	2.9010482	13.690415	22.401506	41488.023	635601.56	-222158.89	-6.4617697e9
H	1.0	1.7850205	11.0501795	4.6868105	-248117.89	383598.9	130368.97	854702.3
H	1.0	16.545834	6.3887615	21.047087	-13618.825	221307.0	354007.53	3.815224e8
H	1.0	0.9828492	7.297602	12.2642355	-366350.16	204504.12	186456.77	-644239.7
H	1.0	11.446786	20.34131	4.2623587	-35520.98	237261.7	-826218.9	-1.492081e6
H	1.0	12.053563	22.95478	6.90527	364209.75	-51670.535	-385818.28	6.1119534e9
H	1.0	5.6091986	0.79729265	19.086212	-28811.791	284637.3	55433.094	1.7909448e9
H	1.0	18.543058	12.901382	4.133437	-269628.78	137094.83	-80539.01	-400351.94
H	1.0	4.855273	21.11935	21.632769	76692.766	268952.62	-281262.38	1.07046406e9
H	1.0	20.06235	18.049585	3.5247762	37915.137	140114.61	128863.3	477089.38
H	1.0	15.502618	7.042735	2.5828657	70203.92	-53593.42	855972.9	-722635.1
H	1.0	20.832642	21.58351	14.235774	-194416.94	93267.52	-137087.6	2.0090618e8
H	1.0	2.350706	21.749626	13.841543	239705.19	224834.64	-301152.12	-25636.273
H	1.0	17.469225	6.8673134	1.5246211	-122870.46	183857.42	-225103.56	-9.237031e8
H	1.0	10.970357	19.177605	7.440266	208913.12	-199143.7	-685080.25	-1.1022978e6
H	1.0	0.40866852	17.010582	13.648383	-144455.02	501746.12	-216441.2	1.1762149e9
H	1.0	2.174252	23.804249	22.96778	207842.73	4902.6	-224217.2	-66566.76
H	1.0	21.483887	3.8010294	13.941311	-318564.22	68221.95	40981.67	-1.0133506e6
H	1.0	0.21933824	8.100848	9.2506075	65098.375	-189657.66	78099.805	4.6536563e8
H	1.0	7.2297626	5.497965	7.181651	300401.34	22382.834	3164.9153	3.179921e9
H	1.0	7.9480324	1.9528502	19.626541	-56194.7	851223.3	-400120.9	-1.2793025e6
H	1.0	20.365213	17.897612	23.68861	52641.156	-295093.94	-35236.445	-7.9361517e8
H	1.0	16.260221	19.551994	18.052156	19821.678	-589122.3	813605.56	-8.373114e9
H	1.0	21.074696	4.4762774	2.3619478	-207434.33	493560.06	445142.22	1.8497395e9
H	1.0	9.950105	12.833456	14.169444	16555.092	481315.88	-362768.66	302399.25
H	1.0	0.66930336	12.951059	17.72773	-178980.28	-213113.2	-775350.8	-1.7044346e6
H	1.0	12.895761	16.28121	20.874094	263621.7	42587.42	29641.84	-2.8113658e8
H	1.0	14.273073	16.851994	7.0743866	-88350.51	139042.19	-138728.97	1.4044625e6
H	1.0	23.66376	0.124108166	2.8926296	639099.56	381318.2	-277287.8	-6.0009027e9
H	1.0	15.801776	3.864934	18.042982	281428.56	397020.06	59499.684	-359762.47
H	1.0	21.164764	6.639725	21.210255	804590.9	-211623.0	102260.85	-1.6270366e6
H	1.0	20.830992	20.795862	2.2243338	252859.81	377182.16	-125117.17	3.404711e9
H	1.0	15.19486	16.570625	16.02087	-509873.7	-19812.842	206406.33	1.1723409e10
H	1.0	8.701614	23.295061	1.9210038	88275.03	117322.69	-14155.892	64028.57
H	1.0	4.038042	11.493611	12.7905245	453100.62	-116561.24	509082.34	-1.7993749e6
H	1.0	0.18174659	17.957079	7.980821	293014.47	87178.086	-279446.03	492422.9
H	1.0	19.875431	16.077238	18.887613	-162328.62	216779.5	-360086.78	-373793.6
H	1.0	7.94299	6.632531	16.825851	385685.62	-242239.66	16405.893	-2.2040591e9
H	1.0	18.858027	17.844193	12.971422	758350.9	-390644.34	293605.56	-1.4499484e6
H	1.0	0.07926869	23.667803	22.073591	179851.78	-307684.44	447903.38	98717.65
H	1.0	4.3853865	17.712343	2.900862	-96623.43	-10946.956	291239.44	494024.66
H	1.0	2.9171176	15.881865	12.584846	-305870.8	-398239.94	27388.943	-627185.44
H	1.0	13.907941	0.99667084	16.968914	-36891.375	-10127.293	9667.163	2.3097853e9
H	1.0	16.890081	17.334644	17.294794	-352738.9	-213039.66	-84464.18	149671.27
H	1.0	4.766963	8.882199	16.091963	188243.2	-107506.6	-173583.08	362926.16
H	1.0	20.696226	16.483477	0.92558056	140035.61	-514675.44	90313.13	9.460671e8
H	1.0	19.768438	12.839443	10.406058	138158.61	1071.9921	226639.92	228681.17
H	1.0	23.778765	21.00637	22.03787	794433.1	-426599.06	114806.15	-1.2607261e6
H	1.0	4.156698	14.962487	5.606105	-577898.1	404325.34	-175738.86	-100706.766
H	1.0	19.004116	14.276381	9.2102375	-410393.3	-176604.08	-287763.7	-2.0286191e9
H	1.0	22.937586	22.147396	12.525072	-65455.125	432445.97	-451036.72	-1.1416503e9
H	1.0	17.832634	13.2099285	14.813432	-213031.44	216876.81	-247267.67	-60383.96
H	1.0	4.0626774	20.912521	3.7267804	338519.62	250991.55	-232404.66	-118910.42
H	1.0	2.4096668	10.119817	11.9429035	111967.875	-371420.9	198893.64	-627989.1
H	1.0	17.901365	3.1625838	18.15631	69313.67	391793.8	613771.8	-560473.94
H	1.0	9.474745	21.063025	20.535593	230194.28	147569.62	-162815.73	3.0203807e9
H	1.0	18.572468	1.9460864	16.598522	-142319.03	-120863.03	194190.17	-630567.56
H	1.0	14.978588	10.514796	0.34657797	130539.2	641878.0	33904.74	79813.43
H	1.0	10.825917	7.3490562	12.714881	18733.014	-37049.598	-28506.379	895141.2
H	1.0	18.027588	15.815709	1.6499208	-316144.38	-160192.86	75926.76	545060.56
H	1.0	4.915653	21.518806	17.29246	-225253.45	16996.928	275478.3	1.366514e9
H	1.0	19.558657	11.126961	5.28776	625781.56	172296.05	58472.33	-7.4479867e9
H	1.0	22.01546	6.59935	9.408959	111160.69	-5143.8896	174131.11	346524.7
H	1.0	8.95571	0.05114501	5.758255	300627.22	40953.934	34882.89	-1.2588416e10
H	1.0	14.352132	7.306091	0.7639093	-203940.42	108029.42	-181665.06	362033.94
H	1.0	13.169106	14.379827	16.901175	-262358.88	-795645.1	-196523.4	-1.3749088e6
H	1.0	0.8189743	17.631748	17.07884	-438418.22	-138290.66	-115425.68	-430748.0
H	1.0	19.700886	19.40664	17.749353	385475.2	514347.0	-119975.85	-9.037182e9
H	1.0	16.080479	8.224089	8.644245	781291.3	54268.016	-95730.414	-655208.25
H	1.0	8.782112	22.167248	5.000505	241126.69	-11008.907	491852.9	-6.778307e8
H	1.0	7.8207493	18.74162	16.65858	-63181.605	90135.32	-334039.8	161962.34
H	1.0	4.862893	13.941283	11.898728	-437061.3	572397.25	21623.87	102331.12
H	1.0	21.822939	23.226122	13.734765	-121329.02	203123.62	90008.12	611104.0
H	1.0	5.5098023	4.627014	11.755912	156920.62	-13627.818	-31785.195	1.6089368e9
H	1.0	21.284176	11.85894	13.893838	274416.97	364078.8	-313667.62	-2.7048934e9
H	1.0	10.70038	0.22167045	20.76403	36663.727	400382.72	-387823.53	-3.8248617e9
H	1.0	15.766033	1.2903811	13.005769	-38684.492	52941.684	-635577.5	-729040.4
H	1.0	8.677391	4.093725	22.88193	-664429.4	-98235.72	-164991.27	-6.8948787e9
H	1.0	16.107946	4.2161818	10.412556	57123.42	796575.8	-71179.63	-5.5716296e9
H	1.0	12.660149	1.782903	2.9819748	-8904.488	-99544.06	-437734.75	453531.4
H	1.0	6.9819145	14.48597	20.67067	85042.0	488628.44	-27370.549	130376.72
H	1.0	11.222419	14.044417	19.315779	341525.94	-82729.79	-157576.83	-1.2182797e9
H	1.0	5.886076	5.8335795	17.567896	-385796.38	54601.918	85539.555	-887865.25
H	1.0	8.419235	12.332131	17.085499	406390.84	194219.36	-182107.88	-4.257559e9
H	1.0	23.299877	12.114112	18.793676	-256999.77	468198.4	-142522.67	-152776.3
H	1.0	16.653278	14.336282	19.117004	-511510.84	220377.16	532301.5	-2.6942856e9
H	1.0	16.8466	1.5542663	4.246684	252817.1	238035.78	-70111.81	1.6540409e6
H	1.0	14.366121	19.69059	16.782791	78682.016	171318.9	-52662.688	235537.92
H	1.0	12.900411	18.391487	13.156821	172623.89	327378.5	-310052.06	-66998.13
H	1.0	16.03549	19.133696	12.8689995	-78217.57	124107.445	-467784.72	2.0780699e9
H	1.0	2.0536969	7.8972964	2.15424	-389726.56	-3063.9143	-103599.92	-4.85944e9
H	1.0	10.920082	11.115718	0.5938509	26717.56	-69378.84	-320314.3	-4.2252157e9
H	1.0	3.5924156	20.358816	19.971077	-13147.274	-195310.9	-74114.01	193288.4
H	1.0	17.58253	8.75702	14.441705	477097.62	142973.7	394103.53	-5.196197e9
H	1.0	0.39988413	16.535824	20.477947	-3304.9148	90754.01	101522.43	333993.34
H	1.0	1.8423378	12.028678	10.589509	-297513.3	-187475.22	223364.62	-3.5759667e9
H	1.0	18.702374	6.925955	7.4640956	-249677.73	552622.9	-169788.95	-8.71234e9
H	1.0	21.471796	20.466328	19.364916	-174771.23	-122883.38	93355.16	336674.5
H	1.0	7.170497	16.784689	4.2548566	-416166.1	-179263.27	340781.44	-607468.56
H	1.0	19.459507	16.742327	20.748756	-142411.48	68300.24	-30452.451	827959.44
H	1.0	0.9735182	14.663854	3.441163	420582.47	-733538.75	-84123.29	-6.433188e9
H	1.0	16.841757	8.627238	6.572298	8747.723	-364098.2	78225.96	4.716211e9
H	1.0	0.34957218	12.665752	2.5521834	-54049.52	-653977.44	-60657.637	-2.9210278e9
H	1.0	1.457426	11.193794	18.595621	9268.43	439626.2	-104619.42	-442290.53
H	1.0	20.43944	1.4798131	8.717125	-232257.56	-261023.28	-41659.68	-601119.8
H	1.0	21.526161	2.7451684	17.872707	120451.61	-551829.5	-235582.56	1.1862876e9
H	1.0	12.626463	12.997842	10.03382	11681.918	642250.4	-214420.81	-915119.0
H	1.0	5.562815	9.696599	20.631409	97580.086	561026.3	-172905.23	-2.6096502e9
H	1.0	13.48906	4.8258605	21.606642	-386524.7	-543213.3	568692.06	-6.787626e9
H	1.0	8.417291	16.331783	1.1334208	358229.97	-251772.39	194632.75	584694.4
H	1.0	12.050942	22.61924	20.786608	-14035.412	158600.0	39216.76	1.6677544e9
H	1.0	15.162572	13.800327	4.289014	196832.4	-552449.06	-62508.93	-533702.4
H	1.0	5.5910015	15.751808	22.218237	95554.555	266199.34	-18535.84	-4.1012534e8
H	1.0	12.16557	8.44534	4.8648334	354510.12	-265202.88	73080.82	2.353005e8
H	1.0	21.535961	5.443957	15.196159	585568.9	70611.95	-75155.016	-970020.9
H	1.0	1.3858562	6.3460417	13.999413	-223867.55	-36180.406	-340446.34	-5.4292346e8
H	1.0	7.323998	18.407593	5.5558343	-235401.72	-65011.97	111963.71	-2.22111e9
H	1.0	11.634397	4.3400145	20.43848	19388.012	380098.03	222882.61	-2.4945613e9
H	1.0	20.720537	16.808683	11.589017	339026.5	-117263.76	368135.38	-16617.943
H	1.0	6.5917015	11.480459	0.59086204	-380793.7	5738.1665	42501.805	2.4427988e9
H	1.0	15.079125	23.40609	5.6082187	202039.39	81555.61	-431766.9	1.5018676e9
H	1.0	6.2409678	10.602548	9.899153	348715.56	307429.0	205752.66	13931.774
H	1.0	19.348593	22.900463	14.093581	-247436.0	-2286.9504	245211.97	-8.3583245e8
H	1.0	14.552288	5.99455	20.141432	-635315.3	446617.84	-250913.11	-4.536419e9
H	1.0	5.9401317	22.719141	23.532532	252527.56	254890.48	116011.586	-82838.86
H	1.0	8.197361	23.449371	13.578927	-115141.375	352929.16	110128.61	335505.78
H	1.0	3.7994099	11.48292	20.263563	-161219.5	-302020.06	190637.38	-161266.94
H	1.0	13.352958	9.102981	6.3010426	-14015.247	212371.53	190211.42	1.3910347e8
H	1.0	14.869961	9.366683	19.948963	-203994.67	-453059.84	-248774.78	-92584.76
H	1.0	23.390308	14.936647	4.9862604	-167896.3	343457.22	100300.766	219147.11
H	1.0	0.17762765	4.618254	17.323994	68103.234	426441.28	77734.9	-316046.84
H	1.0	12.150729	13.601023	22.171825	250180.23	-176270.4	-200299.0	1.0309787e6
H	1.0	23.465734	21.390087	5.5832295	-456662.38	-55125.082	-349795.3	-2.3791196e9
H	1.0	1.1066222	2.770697	4.44048	-12394.353	61112.734	321979.75	-5.7221776e7
H	1.0	23.849236	6.9806995	17.253498	450386.62	-53724.934	449017.9	-1.2588756e6
H	1.0	4.2823277	9.330667	6.804583	-478377.16	332919.06	-97765.836	165372.9
H	1.0	13.857452	20.71615	19.842117	-384247.1	-110164.1	-298127.56	-667643.5
H	1.0	16.308153	11.186718	20.667109	-149959.98	-333003.0	-113508.55	-246803.4
H	1.0	4.100497	13.687954	20.033829	300572.62	61562.742	-150584.81	1.3941613e9
H	1.0	21.713057	20.954624	4.1487308	-64208.305	-104609.9	-287833.06	6.3998904e9
H	1.0	2.3964257	4.8634744	11.329222	47870.496	428803.66	-14516.256	-178857.62
H	1.0	22.769085	14.923337	3.021629	-378384.44	-308800.5	23611.447	1.5519756e9
H	1.0	14.199695	11.164587	9.09149	-27855.76	-36815.387	-211256.3	874931.7
H	1.0	7.9355426	0.38653085	3.8993807	57036.848	-137944.3	305098.47	731666.75
H	1.0	20.869535	22.29674	10.24747	-248843.05	177369.36	-471604.44	-2.4877573e9
H	1.0	20.181118	10.812031	16.847017	244380.84	-444637.16	41742.89	-744604.5
H	1.0	22.340322	15.817758	9.78796	84510.44	165710.22	436406.9	-403411.2
H	1.0	4.805112	3.903153	13.522777	-458643.94	-133076.16	72821.484	-6.824597e9
H	1.0	13.094362	23.641483	13.376687	663868.94	-37599.38	144121.6	-984703.8
H	1.0	12.205997	15.881474	0.36646485	-439610.66	117345.53	-89363.125	337840.4
H	1.0	9.428558	18.286043	2.142833	-209178.89	106329.266	-187208.16	-1.1044166e9
H	1.0	0.80117786	14.766357	7.7296104	249350.88	-12630.098	360996.62	1.8502257e9
H	1.0	12.663056	23.406887	1.1350794	119682.984	426993.66	702527.7	-1.0576824e6
H	1.0	12.686071	12.018178	0.62657136	-356226.78	-74823.68	61323.996	256139.72
H	1.0	17.491093	10.425021	5.106967	132806.0	-200136.81	128056.63	-1.6441134e8
H	1.0	0.8937225	23.245272	1.6293288	215766.98	-218915.56	468808.44	-666485.94
H	1.0	14.276856	5.0017247	11.245051	365019.6	-301766.12	250248.22	-874083.3
H	1.0	18.527292	4.7948146	2.6403737	-598955.6	212335.98	50698.234	-857578.3
H	1.0	15.891777	2.468731	2.4815917	-224095.8	162465.34	-80790.08	960642.56
H	1.0	17.175404	11.530067	3.176941	411668.6	103443.22	-116375.16	-2.7561416e9
H	1.0	22.895681	12.0058365	21.839249	175836.55	11280.549	-109279.586	3.6916529e9
H	1.0	18.308182	23.238598	3.4121752	96213.46	245322.75	-119470.22	979326.44
H	1.0	6.6416144	14.460981	11.160397	-15358.931	9994.728	117116.25	-5.672245e9
H	1.0	19.225008	3.6959672	19.597878	80592.29	-262682.78	44610.15	57045.074
H	1.0	16.226267	18.242432	8.055691	-63085.664	-331092.06	-29960.035	195507.53
H	1.0	14.243322	19.782154	0.7914587	469166.56	-497570.06	-704934.94	-1.0524281e10
H	1.0	16.351658	22.764647	21.64787	117042.71	-65286.293	-389653.78	-570428.56
H	1.0	8.137781	8.833817	23.268034	-100265.23	448670.2	88457.86	-4.4688297e9
H	1.0	23.01827	9.512924	8.2402935	-596753.44	-106349.38	-74570.97	-5.033618e9
H	1.0	23.84527	4.1960583	3.9709609	291617.22	-396608.1	472630.94	-599740.44
H	1.0	21.193022	13.491821	21.43006	59513.8	762923.94	337915.53	-8.3326e9
H	1.0	13.76388	2.3698015	4.7072587	-111902.33	329714.44	123338.01	-1.0597255e8
H	1.0	17.80893	19.604996	11.193051	249886.19	90005.54	4631.4995	77404.07
H	1.0	15.72721	20.507687	23.131441	-355820.47	-313220.78	-450492.03	-4.534684e9
H	1.0	4.902901	12.24211	14.669045	500266.34	409194.47	-216719.06	-4.1885645e9
H	1.0	10.715981	3.318359	13.315952	188289.58	-62891.535	249541.86	1.1767675e6
H	1.0	8.658793	11.18891	14.699482	112863.08	-344847.47	435842.3	-580455.56
H	1.0	12.678424	10.7551775	12.282406	54732.977	360524.88	-519789.47	-885158.7
H	1.0	9.238292	13.96534	10.24677	30767.709	33121.42	-52344.004	4.778953e9
H	1.0	1.4912816	17.64111	0.48731062	-411043.06	285232.75	-87438.34	-323413.6
H	1.0	20.123505	22.92383	21.98846	-291455.56	-311958.5	-278725.62	-2.8801208e6
H	1.0	5.60289	12.388413	19.042704	491075.62	167172.34	655197.5	-573626.5
H	1.0	20.626778	9.228043	13.19751	-21928.111	403300.16	583129.0	-5.082669e9
H	1.0	12.748435	8.998116	23.454779	53347.1	14917.627	152315.03	6.0740365e8
H	1.0	0.47757939	3.6371722	22.032158	-314002.7	-539131.6	-319644.75	-168410.75
H	1.0	23.983305	2.2797682	2.8472457	132443.12	19563.234	-383451.88	-1.320697e9
H	1.0	15.581389	14.277514	17.327564	105964.34	92040.92	435855.5	-4.4826813e9
H	1.0	21.429478	1.6693125	12.752278	-140754.77	-265530.72	-126399.07	-116839.96
H	1.0	17.611027	14.103695	7.705962	32507.285	315202.94	-452527.88	-1.3828244e9
H	1.0	10.793286	11.449974	16.217278	8314.358	244392.14	-126759.055	-1.6473719e6
H	1.0	16.768692	20.469934	2.745017	-130960.79	-12198.534	-199591.05	-2.1123688e8
H	1.0	11.156007	0.26440254	9.19945	51028.297	-19029.523	32086.996	6.8624947e9
H	1.0	3.1465528	6.5066047	8.2508135	-144949.98	-340022.97	-368244.62	-4.6971575e6
H	1.0	12.743514	13.90361	1.0777564	-184263.83	-19257.004	-175503.31	427865.88
H	1.0	0.4455903	4.9630585	5.9656005	-27465.795	-277982.16	-95815.195	146654.34
H	1.0	0.50954884	7.928536	19.323795	-666042.7	-244855.25	-39872.824	-417771.97
H	1.0	8.055386	22.15994	8.923244	-164982.42	398860.1	-428917.62	-391769.56
H	1.0	11.38707	8.894224	21.542782	486257.5	182965.44	-205775.86	-1.8988095e6
H	1.0	22.276476	9.613795	10.447444	-335853.78	211881.02	71596.47	1.4734548e6
H	1.0	6.2061915	2.058738	12.35418	-287567.3	287149.4	749400.4	-4.2598602e9
H	1.0	17.681902	2.5005066	23.179968	413137.53	236399.95	-268613.84	659745.6
H	1.0	10.26994	22.673542	7.755353	61939.07	-476822.47	-11512.821	-1.6789e6
H	1.0	2.542747	13.162497	2.2108636	-179278.89	924.7626	-103300.5	-165776.31
H	1.0	0.30410045	3.971295	1.1582913	82632.11	-147887.38	-190074.5	111628.21
H	1.0	21.156525	23.7881	11.591128	-517766.1	-184201.17	275669.3	1.2657684e9
H	1.0	13.565745	2.9902413	22.966356	-10665.402	147661.98	394602.62	-1.9186998e8
H	1.0	23.06858	2.9215977	7.7557383	-278228.25	446599.78	-115933.41	755896.9
H	1.0	22.720022	15.136165	6.7724075	-168962.42	-58574.758	-15826.897	-3.3021517e9
H	1.0	2.2653925	3.8733013	23.92122	35373.434	-421319.72	-229943.02	5.4020774e8
H	1.0	19.59129	16.07808	4.27312	-131178.42	843661.5	48402.734	-9.599647e9
H	1.0	22.089045	0.3807668	23.569853	63108.75	-175395.28	136569.1	-380401.38
H	1.0	22.895666	12.433818	9.859779	-262326.34	-388044.75	-455549.47	-847588.2
H	1.0	5.7442794	18.48326	10.066333	-162419.98	-145015.38	298860.97	1.0122451e6
H	1.0	18.860556	20.581205	23.750563	-344719.6	237324.38	61132.535	5.860105e9
H	1.0	8.800457	19.693123	18.67986	215856.3	623115.56	-20056.66	-288588.84
H	1.0	18.636782	15.36877	11.568153	105035.8	324785.75	-39265.117	-946386.8
H	1.0	20.877062	23.398079	8.296967	268756.53	-29913.79	625423.8	-349769.84
H	1.0	0.9316422	17.665766	11.60029	367859.75	117639.445	135623.31	-1.1645129e6
H	1.0	15.813677	2.738851	8.497261	-15450.515	-183069.89	564151.75	-3.3265132e9
H	1.0	18.64296	2.3016648	1.4142355	-60827.734	551922.6	121057.695	-1.0518772e10
H	1.0	4.7773724	10.409938	4.2613697	-126516.76	-217284.08	-49576.273	1.1164026e9
H	1.0	8.360646	7.002152	14.205067	373535.44	-357184.84	-333847.62	-799912.06
H	1.0	0.15899716	19.508455	16.940638	269500.7	-105682.04	98058.49	1.21569816e8
H	1.0	1.5222771	2.4701886	16.495728	-108051.83	206488.97	562516.94	3.9270543e9
H	1.0	18.126352	0.619702	21.59016	480629.0	-384305.72	-691177.1	-1.2426383e10
H	1.0	14.06758	11.534928	16.549349	399590.0	29760.615	-34148.426	635485.7
H	1.0	19.172134	1.6382846	18.942568	-224518.22	281740.88	316542.5	2.359092e9
H	1.0	12.319109	18.083893	19.4278	188075.66	549037.0	-175657.42	-325740.84
H	1.0	19.826605	10.374951	19.694613	170428.66	-89903.4	579587.3	-1.2457966e10
H	1.0	22.781637	6.3605976	0.19169185	-39152.34	-520541.38	-42198.965	-1.7940714e9
H	1.0	16.310715	21.315672	14.969509	173676.8	-156001.81	-49284.72	17900.998
H	1.0	9.65953	17.792883	12.785061	-617642.4	-192993.14	299756.1	-1.148634e6
H	1.0	1.1791753	0.49054122	20.66539	-263211.78	229297.25	-388960.28	-91706.29
H	1.0	10.721093	1.6227598	10.852342	-241327.67	-167687.12	-582758.4	-1.0213855e6
H	1.0	19.60826	1.8576089	21.030293	-400917.06	34905.215	-16405.584	1.3890644e9
H	1.0	15.208165	10.582878	6.3116765	-56958.57	-389557.03	121723.766	348190.75
H	1.0	11.888225	20.148422	20.47084	486796.44	-239575.95	193593.83	-3.1134198e8
H	1.0	4.766785	9.357849	11.553383	-237488.86	269897.06	15041.526	2.1153151e9
H	1.0	9.990635	17.493265	8.466477	254544.97	-94529.22	-163729.6	8.5308733e9
H	1.0	12.640125	3.1344242	7.921258	-67058.52	-248934.97	-200405.16	259366.55
H	1.0	14.124685	10.804503	2.6962352	-543462.7	-307367.25	235257.52	-1.2677381e6
H	1.0	6.198302	21.584568	7.4189734	-23244.328	-57790.074	6970.729	399898.78
H	1.0	10.488997	8.376969	6.6293125	-36129.984	187586.7	-155957.84	4.579687e9
H	1.0	7.9986887	18.101324	0.009873398	-79905.78	-228175.6	64003.266	-131194.39
H	1.0	15.165262	23.741974	19.212088	60135.69	-52848.25	3846.9778	3.2146673e9
H	1.0	7.6435447	15.450206	14.3830185	-220408.4	-373850.22	316649.3	-1.1464472e9
H	1.0	18.210781	13.491607	21.928724	-276017.6	-190208.73	-157988.02	1.6219715e9
H	1.0	7.602587	5.748559	0.39041856	-24362.02	201502.83	-204502.8	699937.1
H	1.0	4.815721	11.972188	8.96045	-98523.31	300928.2	-124854.98	-3.9652782e9
H	1.0	2.5735455	5.8832254	22.87051	422264.22	491558.28	396852.25	-853725.56
H	1.0	7.7074857	1.9229195	13.840508	415757.25	-84352.62	272506.94	517824.16
H	1.0	20.064734	22.195665	16.746925	399593.06	109876.49	-89542.11	5.9274746e8
H	1.0	21.385159	12.568347	19.740988	134761.39	-633815.75	206643.9	-589389.94
H	1.0	12.143899	3.861237	3.2416093	-313493.66	-132617.2	-248787.53	-2.970008e9
H	1.0	2.6163886	6.092376	5.4529266	-388755.5	-129829.73	177606.02	3.389136e9
H	1.0	8.3141775	3.4785824	16.33984	-395656.38	-10245.229	-193101.92	9.712652e8
H	1.0	5.1489706	1.827447	14.883933	69837.195	-224188.58	76654.0	258779.72
H	1.0	19.502039	6.1343474	4.059649	568290.9	-170451.67	-197751.16	1.0011815e10
H	1.0	13.43883	8.2628145	11.490401	357417.7	209817.58	649042.9	125334.66
H	1.0	17.104473	3.516573	16.214947	-341499.5	118014.03	-314631.47	466120.5
H	1.0	13.721242	16.447784	18.98117	340728.4	-95888.445	185382.9	2.3893978e6
H	1.0	16.134285	16.10479	7.6225233	198959.9	470220.72	196920.05	-508995.6
H	1.0	10.918864	10.361741	19.121471	-93137.27	157619.78	-355957.4	-241864.83
H	1.0	5.0217924	19.717758	1.6555268	120095.37	144195.67	81296.62	83511.414
H	1.0	8.58881	16.818327	18.020012	300794.25	-136899.92	1208.0258	-389970.56
H	1.0	6.125032	0.77821946	4.4727144	109575.484	-143459.34	22393.732	-1.57558e9
H	1.0	13.724288	2.0673783	21.035202	-235322.7	-10010.849	347906.06	877659.25
H	1.0	3.708098	19.456137	15.853244	102529.62	-288091.5	-587171.2	-4.2810575e9
H	1.0	20.572777	5.290272	11.473577	-8649.909	246229.58	170757.6	1.06195584e9
H	1.0	0.108441964	5.898053	8.815045	193377.16	386449.03	87690.26	-5.679002e8
H	1.0	6.417784	8.755929	3.4737394	-41781.008	-181165.27	188410.9	1.248868e9
H	1.0	19.537382	7.667823	17.932566	469243.72	11316.591	51182.91	-1.0572984e6
H	1.0	0.6813959	0.8973438	5.6326594	141839.78	68944.195	304197.7	2.8389473e9
H	1.0	2.6721275	12.852513	7.119588	-470559.94	12757.039	-196141.73	-337351.0
H	1.0	20.179031	12.3315115	0.93294644	-283206.3	124587.31	-433767.47	-2.463784e9
H	1.0	5.853509	20.529905	10.228434	171903.62	126823.53	19856.447	6.450323e8
H	1.0	11.098496	16.110247	19.054882	-141851.72	426184.53	177311.33	-331071.53
H	1.0	12.056626	14.811362	8.94328	392015.47	7047.492	-20232.68	-419914.0
H	1.0	22.860819	19.259039	2.825725	-74320.41	254656.31	-79390.53	-4.6853136e8
H	1.0	16.033997	5.2768803	8.011462	-261634.02	412425.56	-46687.516	-1.8417798e9
H	1.0	16.370714	23.51402	11.233818	-18350.598	-261365.88	95604.14	1.1405235e8
H	1.0	22.744356	3.3023152	15.927245	342687.7	-21030.48	-147960.23	3.7491308e9
H	1.0	9.54504	0.5412978	8.071672	155641.19	-350974.75	334191.0	-3.5747297e9
H	1.0	8.351861	11.99149	2.5300093	353181.3	222843.23	421198.78	-3.5452936e9
H	1.0	10.913204	0.7200914	0.6236134	-58221.926	-531395.6	-291895.88	-267356.94
H	1.0	14.310299	23.400581	2.8252296	621213.8	-50215.594	137968.0	-532748.3
H	1.0	1.3582383	14.299454	23.482788	50900.906	411988.47	-95465.25	5.261474e9
H	1.0	10.555693	11.676924	20.674192	6105.988	83118.71	-50477.875	127059.805
H	1.0	10.600518	14.7309675	0.017183116	42521.344	257230.58	246178.66	-493882.62
H	1.0	18.087742	21.553732	6.347727	-369477.0	65546.836	-152011.55	552133.9
H	1.0	21.429655	17.221676	20.337858	241420.19	28169.059	87524.38	31957.297
H	1.0	11.372191	3.3694155	1.060064	-282131.12	-228255.53	-207976.25	-254688.67
H	1.0	22.81988	13.964238	12.34072	-119039.96	-728008.25	-205553.12	-1.1501306e10
H	1.0	6.9779754	16.81505	11.228038	-354199.66	-231868.86	-45712.91	-82670.57
H	1.0	5.3598595	20.700333	5.840114	-333888.12	-618310.06	897914.9	-1.0976884e6
H	1.0	17.346155	11.34321	14.860813	422997.38	-93765.266	87221.88	-3.9899123e9
H	1.0	12.805178	16.645855	17.319391	134640.31	-263798.28	-365851.56	-1.9301299e6
H	1.0	11.434157	16.72834	10.026185	-19737.168	271235.5	114684.73	497626.16
H	1.0	22.136297	1.7677807	9.776526	-466879.47	-106791.77	-487251.75	-3.8578243e9
H	1.0	12.173402	15.897858	14.021425	93813.76	171413.58	-362629.9	-5.288006e8
H	1.0	12.974559	7.1902184	18.961535	-363058.72	85043.92	-197328.75	-1.2286889e9
H	1.0	7.156678	2.0924144	6.423196	-318209.16	180918.66	-6166.9917	1.8652196e6
H	1.0	16.087366	20.678774	10.155889	-334949.88	194075.9	375458.16	-3.1692828e9
H	1.0	4.235273	17.04332	0.039267365	482002.1	124855.14	228342.1	-3.2582316e9
H	1.0	20.802595	7.496798	4.7483964	239413.6	-608495.8	-114858.266	-1.0182634e6
H	1.0	19.266058	1.6593211	11.420382	183571.8	-60791.04	217495.38	-15604.266
H	1.0	3.9453068	4.6639028	6.7769184	128832.91	-140556.97	-134758.75	5.411035e8
H	1.0	15.187116	16.527597	13.700607	113286.35	-288199.12	-339930.5	-87858.836
H	1.0	9.55398	2.2595322	23.878258	-620.70166	251236.42	-260940.06	2.2075325e9
H	1.0	19.297365	21.108408	19.009539	-229950.52	183049.64	213800.28	1.5655679e6
H	1.0	14.565591	10.636077	22.369957	218430.11	-124344.12	-30444.176	163905.72
H	1.0	17.421803	11.084337	11.797678	-250501.33	156684.02	-59778.78	-2.0968905e9
H	1.0	0.38975924	5.2137384	10.845696	202544.84	5841.1406	243293.2	-336624.78
H	1.0	11.567342	5.4287157	18.77953	559996.6	-310064.56	477515.75	-1.6074449e6
H	1.0	13.382927	21.658405	23.705357	-86073.72	-346290.75	398838.25	-3.019368e9
H	1.0	0.30405158	8.039293	15.657443	-114154.04	274816.7	-213462.39	3.1004938e8
H	1.0	23.969858	19.368221	5.239644	-560100.3	-52333.324	-24008.46	-1.3358619e9
H	1.0	7.2725053	13.852056	12.932822	-243113.14	-230668.9	-57836.03	2.9843983e9
H	1.0	6.491991	16.540873	18.9141	62076.477	-554528.5	-284081.94	-3.3414449e9
H	1.0	23.898737	10.269699	5.696461	324844.88	-165740.27	-488771.9	-3.7029135e9
H	1.0	15.99816	17.606215	3.8192325	-704925.6	259506.03	-42271.28	-3.3672154e9
H	1.0	17.119535	17.454254	10.891456	-176212.53	-200150.22	-217502.67	5.633894e9
H	1.0	21.762157	23.925598	4.6387877	365395.1	302628.6	23105.324	-5.684289e9
H	1.0	9.322513	15.044571	18.989388	108183.51	170787.9	265274.47	54011.137
H	1.0	8.211675	3.8408952	1.042958	-13482.795	-209392.19	-82283.49	1.9410285e9
H	1.0	3.4400077	22.700495	0.025238132	-419510.28	203219.14	50241.7	287041.62
H	1.0	14.819236	22.284365	16.31333	-231017.17	1413.13	-15238.809	5.100329e8
H	1.0	10.118448	10.701966	8.3935585	294961.44	-56425.37	609048.75	656996.44
H	1.0	9.741469	8.693057	17.738386	-221508.17	-108054.336	248433.22	736158.5
H	1.0	23.298134	21.483208	19.139029	274605.28	-21204.408	115227.836	-3.3902532e7
H	1.0	21.36584	2.9366624	3.788199	-152889.56	-417114.97	-473087.94	-4.538239e9
H	1.0	0.29337505	7.4343953	2.8269286	-546087.94	-42766.527	25786.557	-1.5887688e7
H	1.0	14.412926	11.319788	14.563608	65524.266	-222918.75	-102725.414	3.2202373e9
H	1.0	5.421619	4.02551	2.5977287	-314419.16	96418.83	140867.56	-3.692625e8
H	1.0	8.530498	0.02368812	9.84361	-377973.16	218094.98	586173.8	-1.2437191e6
H	1.0	8.095946	7.75704	20.446913	184096.12	387542.78	87339.16	-3.1647493e9
H	1.0	16.232985	0.45431757	2.4859788	145602.06	10369.912	-102296.21	-807866.94
H	1.0	23.142702	7.243423	11.740638	-17078.234	107775.28	-415685.66	-1.00970496e9
H	1.0	7.292418	18.858389	11.353484	-260126.84	150991.38	178242.06	-6.558875e8
H	1.0	23.0179	23.37654	18.55007	118062.05	-81360.15	-125685.09	1.6800367e9
H	1.0	16.568012	15.261727	12.160798	295063.1	-418792.75	176591.55	1.9448099e9
H	1.0	6.47651	6.9073815	9.989908	-178357.45	-13502.682	27981.559	4.706051e9
H	1.0	23.198603	12.373164	16.66466	-565875.44	-220814.62	-80417.555	-1.9467666e9
H	1.0	2.280886	6.8647656	18.181566	-191265.38	271154.1	-212646.12	1.0537161e8
H	1.0	16.07735	15.611588	22.33168	-515999.94	-110309.586	-259936.05	-519535.8
H	1.0	4.122701	16.029482	18.057495	233078.52	-51328.766	65660.98	225009.45
H	1.0	10.388482	6.345479	5.2200885	269266.6	146150.0	-24086.236	-128918.8
H	1.0	5.045148	22.458452	2.2029896	-343139.2	48198.668	136579.64	6.453231e9
H	1.0	14.110563	20.10768	13.710854	254725.69	-266034.0	-506962.7	-27312.963
H	1.0	15.461774	5.4643598	0.6968874	446982.38	-64629.25	387109.53	-2.4748938e9
H	1.0	15.333321	1.7929031	6.107319	-133493.38	158237.5	312549.16	-7.5412243e8
H	1.0	15.823035	0.58151925	9.514104	-99042.61	291105.12	59574.516	351809.78
H	1.0	16.653725	8.208881	21.85989	88522.336	209910.9	52425.133	4.8941728e8
H	1.0	22.732786	23.025913	6.566748	193737.64	334541.25	-318825.22	-483237.03
H	1.0	12.313964	5.624118	9.047093	192285.06	331121.3	-128637.2	-86342.195
H	1.0	11.991814	6.055919	21.502666	438078.94	-135214.88	-399303.72	67069.79
H	1.0	19.692778	9.649325	23.070267	-100934.32	-11252.633	216446.97	285629.28
H	1.0	10.411615	18.333748	21.459953	-351953.47	-83053.14	-693115.8	-8.5402424e9
H	1.0	19.64786	19.350393	1.2286679	-176085.19	-168704.31	-326904.53	-1.4382162e6
H	1.0	19.572016	13.467747	19.419828	-62352.312	-93443.76	-166186.6	670023.5
H	1.0	15.125076	8.443994	16.622099	712706.9	87886.375	-117158.95	-1.2680669e6
H	1.0	16.335089	5.1912394	13.45813	-114293.65	-343956.97	-234332.03	-6.6005647e9
H	1.0	12.292386	22.026089	14.615406	111562.85	-241705.92	-24359.1	1.174651e6
H	1.0	17.708803	8.179047	4.2228603	-255336.8	351834.56	377905.16	-1.1543342e6
H	1.0	18.951263	21.778185	2.3030167	107884.96	-40690.28	191796.66	4.1115983e9
H	1.0	0.49552348	16.181013	6.2196636	-191891.86	-234312.06	-18107.826	135865.28
H	1.0	12.202446	9.694403	8.779995	568577.06	104974.45	87529.516	-1.3579178e6
H	1.0	13.328036	7.082549	3.7668056	355041.8	-70815.63	120198.38	-249294.6
H	1.0	7.8037887	11.501943	21.132185	-123488.9	-130257.85	-304318.9	-1.4340938e9
H	1.0	5.8900757	16.056404	16.757717	370948.4	221578.28	-271498.25	1.3219663e9
H	1.0	9.924291	18.105724	23.353989	30300.04	-241265.03	219979.28	8.289424e7
H	1.0	22.573195	10.024041	15.715267	-137950.42	414878.9	-215497.86	147980.81
H	1.0	7.0790215	0.52622956	7.680957	-216025.08	-277735.62	297745.62	619250.8
H	1.0	20.169426	23.887188	3.5670803	-587530.9	-205140.23	177701.97	-3.7085356e9
H	1.0	19.5528	18.409147	21.867348	-126526.0	-368742.72	-94648.445	-656797.56
H	1.0	8.599125	1.7542654	2.1711218	80932.45	-289531.53	46445.29	14127.952
H	1.0	13.808374	3.232768	16.501925	-101365.805	-378628.62	181005.81	3.3846835e8
H	1.0	4.9770722	10.113033	14.164674	-8094.4946	604053.25	-338539.16	-1.00345456e6
H	1.0	8.497186	13.855387	1.0973315	96857.35	234606.19	-26714.51	-3.5633696e8
H	1.0	9.905215	7.541082	3.1470134	-366134.9	-339590.66	33239.918	-2.1758958e9
H	1.0	17.965727	4.5899134	0.28534973	164980.6	-11238.165	-307807.94	-9.220008e8
H	1.0	11.365964	21.365034	2.0821357	-35339.61	-218082.47	88897.234	2.7963656e9
H	1.0	11.719147	14.470308	15.333019	-180996.92	142228.95	-10916.921	-3.020047e8
H	1.0	7.39423	4.5828404	18.203714	-162704.47	35652.082	122820.63	6.075334e9
H	1.0	6.838197	9.4099	15.421671	-411480.1	297578.3	-2992.1768	1.6917489e9
H	1.0	16.20893	13.363493	20.984211	-192457.02	128886.06	-78269.125	3.4146708e7
H	1.0	13.462836	5.4658074	2.0358152	-98304.55	157965.47	28512.764	3.3129962e8
H	1.0	10.604906	22.243092	23.98256	-120905.086	-111173.23	-538188.5	7.265263e8
H	1.0	14.635458	13.999972	24.068768	246455.55	63552.94	-645848.94	-1.0896956e6
H	1.0	5.357302	19.4448	3.9393945	-43815.746	-24939.754	204070.36	417123.88
H	1.0	8.82538	5.181564	2.6108387	180126.84	-186556.03	305483.75	-2.3950953e9
H	1.0	23.476278	21.330887	14.767681	-277537.44	-204159.77	-268888.97	-5.3015337e9
H	1.0	1.6992664	16.224958	2.2799237	-462569.78	238130.19	-203042.02	120761.44
H	1.0	19.641808	11.759424	7.316973	-147529.39	463978.28	155238.22	-1.8147965e8
H	1.0	14.658371	16.558931	0.064056344	97000.27	-128875.73	-453844.03	372087.56
H	1.0	9.225689	14.008842	4.0169907	-113100.38	817348.06	201036.55	-1.5834516e6
H	1.0	2.803235	18.177681	21.875612	-50053.34	566335.6	74859.555	-1.2491235e9
H	1.0	19.370344	6.692936	12.573676	-74057.47	-343495.94	-142960.33	5.7631955e8
H	1.0	11.406892	17.174442	5.5350485	261620.64	-232104.28	225158.97	809973.0
H	1.0	19.869484	23.878332	6.534551	353079.53	-165868.02	-92373.22	-380332.56
H	1.0	8.469578	16.133274	20.373894	552187.9	36270.574	244132.66	-4.4095606e9
H	1.0	16.700788	6.7438526	23.569569	58296.18	207093.22	-464849.34	-1.1662219e6
H	1.0	8.925406	11.327241	5.343963	129599.48	-396615.6	84460.58	6.719145e9
H	1.0	6.3401957	2.8243272	17.132332	-383396.66	-488383.38	-45602.504	-7.0185784e9
H	1.0	4.235453	6.60214	6.366495	-256196.03	-158781.0	8248.282	3.2818452e6
H	1.0	15.265323	6.9829564	14.920657	-84380.734	133524.86	-296003.47	-6.1796444e9
H	1.0	1.1604604	14.525792	12.157705	250129.45	-5034.4956	-354672.5	512663.28
H	1.0	21.131954	11.146746	23.172915	-101384.21	99699.945	332005.2	-1.0051242e6
H	1.0	14.534176	1.115343	11.042174	448680.88	-172033.66	63448.465	-1.4910895e9
H	1.0	4.4584913	19.253855	7.9129	-340588.38	201595.14	-691563.9	469207.34
H	1.0	9.420649	15.825669	9.44414	116267.836	81185.336	128108.37	-2.6086134e9
H	1.0	2.0638661	20.77224	23.489439	59733.52	92175.27	242707.02	253917.62
H	1.0	8.350697	9.895007	3.5707471	345060.34	398832.75	460539.97	442931.72
H	1.0	22.46668	15.107578	23.712542	144068.56	-199524.42	13630.587	1.0979607e9
H	1.0	18.725462	0.9291672	4.5466723	66760.39	-134678.48	463901.34	-7.3693786e8
H	1.0	12.347975	8.5014925	1.2459114	-281381.7	-2750.049	62365.52	318301.38
H	1.0	2.986062	2.4962573	9.7307	84466.46	655257.44	-171010.25	-4.1736348e9
H	1.0	3.5425768	18.051086	11.015324	-347898.72	-498808.66	255083.95	-8.978926e9
H	1.0	8.942221	19.818438	6.8919883	237363.67	-283466.78	79355.54	1.6054784e9
H	1.0	19.030867	13.015295	12.326648	862134.6	357581.9	324266.3	-8.033008e9
H	1.0	18.513577	17.733644	5.2404466	-507402.25	37794.418	557678.5	-1.1908112e6
H	1.0	7.1799517	20.805521	13.14339	68062.45	-224970.14	-410772.88	1.0619042e6
H	1.0	3.6787589	8.098988	21.287352	529234.6	-133016.2	-305142.25	-2.6320448e9
H	1.0	10.40968	4.84684	8.45341	184946.89	46476.207	-605363.94	6.685716e8
H	1.0	20.42468	9.272681	3.7342987	-591471.2	231872.66	-467.75616	-4.910462e8
H	1.0	3.5769904	14.046817	13.679486	-138770.31	-333593.9	320349.7	-3.2659482e9
H	1.0	21.26728	1.196762	6.477463	-547686.94	205434.36	182830.56	-852231.4
H	1.0	5.983502	5.400939	21.80084	-120739.57	-255226.44	-148023.36	425567.2
H	1.0	19.45817	4.0366373	12.819526	92840.63	176701.22	-135629.22	-2.1956652e9
H	1.0	0.53326887	10.820444	14.039388	72675.75	-325073.16	153404.47	-261412.48
H	1.0	21.082138	11.415871	3.7919483	308258.2	-187094.39	-372310.4	-722156.75
H	1.0	10.111454	0.68314135	14.427223	87178.375	275948.28	-470910.4	-1.511301e9
H	1.0	13.182842	22.406178	18.672554	130033.54	-145360.17	213106.23	-5.5608064e8
H	1.0	6.775009	10.752496	6.1741676	88728.32	-81441.08	-405035.0	1.3030883e9
H	1.0	2.3590853	10.387369	7.2115955	-289231.56	-171670.95	6245.739	688544.3
H	1.0	5.381727	22.8548	14.539034	352705.38	-103683.836	-114009.47	-91415.15
H	1.0	1.5890666	3.875508	19.048069	-39024.613	283353.25	238674.05	-1.77831e6
H	1.0	4.459721	5.283709	3.7761111	18103.684	-233979.84	501523.0	-1.5327437e9
H	1.0	3.3816733	19.448801	0.24724519	-27862.592	296464.3	12550.6455	4.6835543e9
H	1.0	7.707519	13.180906	7.944093	-697779.44	560206.5	-904436.0	-3.7242155e6
H	1.0	16.638552	14.9563055	15.301863	-12379.824	124700.055	139434.62	4.8988385e9
H	1.0	20.556477	5.139816	8.607812	171496.16	-630850.0	100126.3	387803.4
H	1.0	22.865568	17.775171	23.658854	33276.297	5955.5547	-683.41925	79945.29
H	1.0	23.339218	8.36723	22.269266	113846.31	-286429.2	216460.67	-29230.57
H	1.0	10.11512	6.094776	17.048847	17811.914	6358.6606	127856.65	1.9186926e9
H	1.0	5.140199	12.776443	2.6550405	-127981.47	73439.94	-8988.065	394141.0
H	1.0	22.859182	17.602215	5.689491	-24724.354	-26890.68	203442.97	455369.62
H	1.0	18.456896	16.430233	6.9639263	-226958.58	-285280.38	-143285.48	64080.844
H	1.0	20.523638	8.686606	0.8015478	265077.7	-275204.2	-87253.81	322036.4
H	1.0	5.007107	3.2951193	21.77858	4642.902	64196.09	122343.93	1.239323e9
H	1.0	3.0217729	9.226114	18.012638	-244866.06	24911.244	139996.48	1.5895376e6
H	1.0	2.2174337	11.928908	0.1180966	-13464.49	191346.47	165912.19	-730662.6
H	1.0	3.577813	0.7208795	5.484034	97043.23	-87355.1	440534.94	40844.617
H	1.0	7.2453976	14.400433	4.837241	-94831.766	-80105.4	-126715.164	136081.2
H	1.0	22.455418	16.885	2.3848796	504177.84	-103073.2	358921.28	-3.9156076e9
H	1.0	2.1515384	12.486816	13.099257	-304472.9	-44027.63	-249985.4	966106.1
H	1.0	1.980318	22.412647	18.66988	-19360.135	-344311.06	535486.75	-593976.06
H	1.0	21.160889	11.640026	11.877584	-101403.484	-261308.97	-633647.7	-211870.84
H	1.0	19.162981	8.375238	2.2719603	260304.33	338241.2	-175024.48	-218868.81
H	1.0	14.334634	20.36895	8.909919	281137.12	-475826.25	-29745.945	-669518.0
H	1.0	7.293981	11.449061	19.25026	90.47225	1359.7672	-124461.56	457709.4
H	1.0	10.021056	6.6606393	1.2256199	110534.016	230890.56	-371629.16	3.190148e8
H	1.0	23.314676	4.3451395	20.310999	-10333.041	-148443.5	-29364.559	-1.6231459e9
H	1.0	18.324116	11.56065	20.870693	-25235.125	-132854.88	277514.22	7.00011e9
H	1.0	2.4979982	20.114468	10.360638	-310321.44	105405.33	-193049.47	162458.97
H	1.0	4.3995314	23.281958	22.19881	80283.18	-40828.54	141060.0	4.15466e9
H	1.0	18.454353	21.28238	8.846787	-70417.1	-35872.01	-338507.22	1.01055006e6
H	1.0	6.5931935	18.803923	18.917633	8542.837	-411747.5	74277.65	-260390.81
H	1.0	2.14133	15.784847	16.991644	293392.0	-23326.893	145744.92	-264494.3
H	1.0	14.282715	22.171556	10.911509	-289393.28	98831.164	289486.3	-1.0340776e9
H	1.0	15.7660885	17.97942	21.276726	-35799.99	64406.39	116107.984	113619.19
H	1.0	10.426522	10.031399	4.8397527	-47385.883	-149544.05	-27554.58	4.9259407e9
H	1.0	23.742287	8.395471	0.9315891	-72787.59	-41259.094	-282630.2	330800.16
H	1.0	3.4111009	19.486883	12.950295	-323901.62	-433102.7	431276.38	-616265.0
H	1.0	6.398049	5.506386	13.424048	-298821.6	185130.36	-62147.49	-378855.38
H	1.0	14.652534	0.29878068	0.2518969	485642.06	375764.34	-58247.46	2.0913151e9
H	1.0	18.88977	6.162475	21.303997	-48515.8	605597.5	-54945.043	1.020313e8
H	1.0	19.964058	3.1478322	5.369174	-482709.84	50467.184	-487092.4	-3.7609385e9
H	1.0	12.620423	21.572098	12.62771	737533.2	278553.06	-99112.664	-3.4924332e9
H	1.0	20.28635	2.945927	22.721218	-174450.56	298691.06	105754.27	4.2049702e9
H	1.0	17.32591	22.589888	9.75998	283181.3	-1150.3923	-452830.25	-533970.0
H	1.0	23.35655	8.692625	13.918996	-192576.08	23346.375	-178404.83	-50578.027
H	1.0	2.7649102	0.832551	3.169297	-43125.32	-129567.63	-244585.8	5.6357233e9
H	1.0	5.6380596	3.675309	6.9928293	15731.144	153062.2	514398.7	-6.381648e8
1000
Lattice="24.079964 24.079964 24.079964 0.0 0.0 0.0 0.0 0.0 0.0" Properties="Particle Type:S:1:Radius:R:1:Position:R:3:Velocity:R:3:Entropy:R:1" 
He	1.0	6.487654	2.2192335	3.0535364	29069.004	-43906.15	7788.7524	12387.651
He	1.0	2.3662202	16.128439	10.333625	630.50323	9233.279	6685.4883	-1.4543014e6
He	1.0	2.2990568	3.42138	7.179241	11994.66	-1921.9801	-352.09875	-1.4736469e6
He	1.0	1.048934	18.870579	19.531889	9175.331	-2705.8916	-3292.56	-49.772846
He	1.0	21.094532	10.553537	21.305641	12200.057	-3314.4902	10594.301	5.7477617e9
He	1.0	4.7149954	12.4657135	21.824415	-3591.7878	-1852.4131	-233.42485	1.0369302e8
He	1.0	2.2307491	8.364732	14.191525	2232.3657	-3921.1213	-3160.7407	14.103163
He	1.0	16.56096	23.762793	7.3225813	-7109.886	-373.19702	-3395.466	-69.12056
He	1.0	7.3765397	21.36226	22.092464	-22155.773	1228.8575	8565.588	187908.72
He	1.0	23.079302	1.2261059	16.5216	1412.0667	405.44244	-246.98709	8.573235e6
He	1.0	6.0289035	16.55584	6.9070716	-745.0916	4997.3184	9256.28	1.8347082e7
He	1.0	18.55664	22.210009	11.516997	892.5533	5598.445	-4807.0527	11873.741
He	1.0	16.6027	6.3261857	11.701102	2977.089	-2468.6145	-2747.497	26181.35
He	1.0	15.610051	6.097443	9.983098	5664.68	-4977.6626	1388.0515	1.0847639e8
He	1.0	2.8851318	14.204186	10.958257	-108615.55	26718.902	-72272.58	313174.2
He	1.0	1.8682946	11.103384	2.014526	903.70355	-37424.977	13676.607	5.0918886e9
He	1.0	8.293729	5.1771584	9.628297	1340.7109	-1193.4567	-2405.326	60.2472
He	1.0	11.135555	2.604241	21.482347	11468.388	-4040.216	-3365.558	198023.05
He	1.0	23.239794	16.994875	15.744118	-70970.75	-29756.05	-72699.98	1.6140361e9
He	1.0	24.03481	10.350867	11.917089	-1513.2745	-3318.341	-3831.6301	-3826.1836
He	1.0	14.24724	4.424976	9.273084	1193.5286	236.07018	4633.9355	-18.842854
He	1.0	9.052363	20.448746	3.106907	9997.714	353.50092	-130.80618	-1.1552951e6
He	1.0	7.3708625	20.408968	5.035152	8352.058	104543.21	-33813.4	270636.47
He	1.0	17.914827	15.011669	20.566158	9886.177	13195.619	28575.498	2.8900525e8
He	1.0	8.533092	3.3916402	11.919402	2198.828	2441.0862	15239.166	11460.166
He	1.0	0.5107987	9.566899	3.1907356	3087.4084	5038.2046	2848.7566	-254107.11
He	1.0	8.686912	20.430067	0.5750379	-4043.235	-636.8774	-2044.6913	903964.94
He	1.0	18.503403	17.496721	0.5063819	-28452.225	-2826.169	20263.531	2.1249933e9
He	1.0	22.230576	22.98627	16.044886	-2750.285	3285.114	-6322.3022	-245384.16
He	1.0	20.448065	13.598622	6.8803024	6203.526	-2748.1807	3288.3755	614999.1
He	1.0	20.647154	7.7330594	11.005378	-4370.0557	-1690.2645	-551.1421	1.5968641e9
He	1.0	21.454964	7.227656	18.871408	-2148.1309	2834.3943	-1473.5251	2.7646308e9
He	1.0	17.276897	13.558945	10.948102	15050.074	-42427.492	-40499.78	376619.25
He	1.0	3.8442636	11.195717	1.3974421	-6180.116	-7047.367	2688.0679	-561769.2
He	1.0	15.590204	18.633701	10.03223	5589.2173	3038.4236	2590.3315	2.5620762e8
He	1.0	12.261636	7.8714027	14.600726	299.42233	1531.5065	-5742.532	12629.678
He	1.0	9.302399	16.143631	4.4390154	-9233.425	-2681.7773	2693.7017	-507817.03
He	1.0	2.4259858	22.356827	3.1373973	124.64419	-1834.0709	-2087.9875	115.94645
He	1.0	4.923281	18.377567	22.651371	-5828.0312	4959.3076	79.49991	115.192665
He	1.0	14.165339	4.8555365	14.098052	1040.9772	-5.895757	-2711.3362	1.1551388e6
He	1.0	15.8139515	4.149474	22.19829	-8994.301	1216.4957	114.51438	-563334.4
He	1.0	15.510512	21.642778	18.591225	-3356.4597	-1638.882	190.9684	47.59065
He	1.0	18.556269	21.14996	15.000382	-825.6494	4251.9077	-2400.0159	-9.479211
He	1.0	11.660448	7.656556	8.253691	4189.691	-4802.9414	-2520.7334	-18880.53
He	1.0	13.118829	23.560173	22.238453	1485.9332	-1261.1873	4109.1597	916001.7
He	1.0	15.697913	18.151634	5.7814054	1012.2998	6155.9536	10557.352	1863.9436
He	1.0	6.6840544	23.63948	17.012697	-5118.559	5376.888	-7931.8457	-1.2370568e6
He	1.0	8.619834	22.608686	11.72551	-983.3683	8011.4126	-3285.9814	-172785.88
He	1.0	21.918074	19.055162	7.680538	1645.051	-1458.0358	4594.795	-101558.51
He	1.0	14.552409	6.236771	22.842299	-43730.492	-8577.014	-13297.417	4273.7793
He	1.0	17.336538	8.629006	17.896378	3943.8816	7149.45	-3279.3096	-686296.56
He	1.0	11.705129	15.955118	3.7519143	1662.3329	-10050.934	5209.2983	-1.5408546e6
He	1.0	12.382531	20.043743	8.644635	-2638.1458	-5231.2725	5902.8545	4.7915556e9
He	1.0	4.3165984	1.930905	3.7150116	2160.5022	-792.4766	1066.6356	6828.313
He	1.0	6.440648	7.820312	17.942608	-3282.7034	4926.095	-1401.7477	20787.06
He	1.0	5.986585	2.9486623	0.61909896	1570.8397	676.279	-272.72922	955214.9
He	1.0	14.904898	4.835366	6.2216187	-4359.1343	-272.62885	-7254.5923	-144.9994
He	1.0	15.54191	21.867926	12.662405	11162.7705	-39878.79	17655.23	2.2707026e9
He	1.0	18.071863	5.1728964	9.641617	-3837.683	1301.9535	593.59235	223964.67
He	1.0	23.596487	18.727623	21.755455	5185.5664	-7308.673	3744.2334	1.317797e9
He	1.0	13.370738	19.271885	4.353838	4846.662	-12633.983	28417.568	5.431808e8
He	1.0	3.1782682	21.062874	1.7857256	-864.9652	5291.8276	2154.775	1.2538385e9
He	1.0	21.930706	0.00081250735	1.8331046	-191.36154	-271.79785	5163.5435	-8372.343
He	1.0	12.203387	10.106525	16.402927	7320.8	-1560.951	2191.5962	157257.52
He	1.0	17.613123	22.989014	16.317797	-2954.1624	-786.76495	-2329.6445	21.537693
He	1.0	5.5358334	9.746061	23.923622	2584.9226	898.7285	-606.89166	484.76776
He	1.0	18.48459	9.937491	3.4687963	71373.99	123538.664	-57858.82	1.5238046e6
He	1.0	22.430351	14.285484	17.394333	3869.544	9911.839	1944.3131	-233.16002
He	1.0	3.2154295	16.895605	6.0174236	-36900.996	65530.254	5090.079	914357.9
He	1.0	10.932127	17.994122	3.4043624	-4732.184	-2939.0845	1836.7308	93450.88
He	1.0	16.811071	20.387838	0.73071235	857.3951	5414.1807	-8.838081	480492.1
He	1.0	4.185342	21.960356	9.502866	4765.255	1941.0723	2411.6177	-58.804882
He	1.0	22.605667	6.2128778	2.2228646	1689.1455	-505.6985	3032.7969	365684.12
He	1.0	22.721367	5.1194053	7.0097694	3046.5903	4662.2383	-2279.1978	262171.75
He	1.0	6.624757	7.987552	8.122338	645.2882	604.72656	2003.1782	347205.88
He	1.0	14.017463	17.809113	11.32871	-7231.327	2997.8232	-5067.9014	4.0030205e9
He	1.0	2.3513868	19.481424	6.944165	817.61554	-1329.5754	5356.9863	216.07753
He	1.0	2.6732743	23.564623	16.923454	-5899.7983	19797.102	8850.918	111006.39
He	1.0	23.878471	21.025692	10.518155	5864.461	2652.9526	1944.3145	-416021.88
He	1.0	4.56987	24.078737	10.696978	480.27756	4972.6196	4353.3335	-57.264168
He	1.0	9.802043	5.1901813	12.69489	106.621346	-5955.0967	2360.9473	117.15784
He	1.0	23.066519	1.5716602	21.371996	3759.7537	-1816.7522	-2622.8555	286738.9
He	1.0	13.568049	21.250319	6.9853187	-7728.451	-1828.4996	-1242.1311	39.99204
He	1.0	2.2674744	3.0688932	21.088514	53.90545	-3760.1594	4135.5557	4.3507952e8
He	1.0	17.556753	19.046534	21.567453	4730.8306	-2106.1062	-493.99326	64047.16
He	1.0	4.394572	8.659735	8.837543	-2809.5225	1183.805	1092.4622	95.991776
He	1.0	16.767275	22.942284	1.4174181	21.343634	3959.8408	-3080.736	9.9523176e7
He	1.0	9.912896	4.1447387	17.650417	-3571.2866	408.6787	-1227.1124	0.11922688
He	1.0	18.832293	7.1684055	5.505709	-727.5337	3333.9863	-2905.4414	529286.75
He	1.0	15.008183	2.014212	18.97645	-2275.1387	4851.4995	-950.9264	170333.78
He	1.0	16.300886	10.135265	16.338667	34774.605	45124.68	-2825.5215	2.1169207e9
He	1.0	0.9003933	4.4334097	14.813157	-4580.509	-13415.358	4460.5654	1.8671246e9
He	1.0	4.187697	23.121822	3.8894353	444.69305	-1815.9282	1636.4061	2.2780585e9
He	1.0	20.136522	20.79246	6.724056	-2155.6567	1028.3453	-4684.1553	-27.78943
He	1.0	23.675425	12.79998	23.548649	-7811.5337	-4492.303	1751.3151	1.7787626e8
He	1.0	9.242772	14.814774	7.6615167	7201.7573	3234.1116	6698.412	418699.3
He	1.0	22.19202	4.359816	10.056456	-6225.384	-3691.7073	-9606.947	-340.03497
He	1.0	11.732172	24.037262	15.986896	-5425.807	-2032.7251	-2161.32	377.37503
He	1.0	9.195102	22.057144	22.50119	-22099.09	4728.9146	-23030.455	4.1808812e9
He	1.0	5.4718456	3.850406	15.669354	6278.928	2810.0486	-4813.3823	1.5658168e8
He	1.0	18.103365	23.284273	18.31252	-1247.0319	5876.2617	1913.5764	156.10901
He	1.0	6.678618	14.851845	8.973486	3246.2976	2277.8806	2122.1335	4.2888575
He	1.0	19.758389	10.704167	10.299254	-1805.74	3790.9832	9557.264	1.7481514e8
He	1.0	11.107314	23.466095	12.040508	-8757.868	-151.98631	-3001.7285	-72.35528
He	1.0	16.61997	19.63819	4.7557087	-920.8478	4996.3857	7474.695	-508691.66
He	1.0	1.6270447	15.040335	14.081806	-118501.414	42185.785	9911.365	3.664891e9
He	1.0	12.608269	2.9796033	18.472296	1103.783	7456.9	487.70688	122.51319
He	1.0	10.812267	0.11074599	22.745106	4145.446	-1.4666545	2511.4995	4.833225e8
He	1.0	21.015911	14.539508	10.416042	13841.485	18695.564	567.6749	1.0377995e9
He	1.0	4.8076377	0.0217745	7.1448135	42656.723	-18217.209	60819.926	1.609486e8
He	1.0	5.6334977	8.262142	5.5539074	-2127.5002	4144.469	-2437.843	194.12674
He	1.0	20.639921	2.8853211	0.9978417	607.43463	11002.788	-1096.1798	721834.9
He	1.0	8.924106	13.266433	20.323917	-715.626	-3824.925	-1577.3932	1.6689204e9
He	1.0	9.493308	9.881575	20.96896	290.0369	1253.4419	-1773.7346	877.8002
He	1.0	11.538554	20.307755	15.9831	829.9388	285.6551	-1562.7092	659089.44
He	1.0	8.489017	0.4386436	0.07560707	-14790.631	-21536.334	3754.7356	1.9955807e9
He	1.0	1.6795769	1.7464172	18.839796	8802.328	-239461.61	-19260.371	6.8077737e9
He	1.0	8.205833	11.185175	7.527388	1297.8931	-3141.37	-4863.0674	23650.625
He	1.0	7.970715	6.918634	5.9094634	2821.767	2090.673	1884.1058	285.04346
He	1.0	18.94524	17.225233	16.125366	8437.435	-3980.101	-413.3224	-163.81964
He	1.0	1.7371788	23.735153	10.647071	5546.576	4737.0425	-269.44086	-296697.88
He	1.0	12.330784	2.0656977	11.958015	3134.1313	-96.268715	-910.93835	72450.28
He	1.0	17.28493	22.776054	12.952691	28594.11	16258.704	3642.2334	8.045215e8
He	1.0	21.950535	21.178635	23.042849	3351.1284	8091.823	21427.05	151726.78
He	1.0	19.952383	4.5292144	17.394602	-5294.5234	-3625.3362	755.2913	22395.969
He	1.0	9.138996	2.6338444	21.470469	-17107.076	-2720.9016	1635.0046	37991.68
He	1.0	1.183434	1.82399	0.986285	3725.8552	3307.931	1849.8616	-17516.422
He	1.0	4.6720366	21.266554	12.078009	5226.033	7116.1313	6473.2705	1.5453663e9
He	1.0	19.497425	0.21060078	15.869346	-3602.7354	4783.6978	-463.6238	6.892052e8
He	1.0	2.9614003	4.6025796	13.267001	-2639.2458	-7534.1465	-3173.6677	153314.53
He	1.0	20.31396	18.92961	10.664301	12942.809	-4128.681	-2776.1025	-2.1645845e6
He	1.0	8.918466	4.062043	14.119798	-880.5102	2004.4556	91.6834	17.311491
He	1.0	8.818488	11.382902	0.4081352	-45622.492	-485.74576	-2988.5808	38783.883
He	1.0	1.3854655	14.892188	18.686306	1320.665	1066.2272	-4053.1262	-206304.55
He	1.0	4.7438893	17.849642	15.179045	-2151.9724	-734.11804	1227.1241	32480.305
He	1.0	14.704666	12.988547	10.578458	136249.47	-12378.136	26449.635	4.7703583e9
He	1.0	15.00699	17.308714	2.0030062	-465.01877	-4173.723	611.3547	-188788.6
He	1.0	2.15996	6.918606	10.213924	-12166.809	-14910.162	182.88577	43992.703
He	1.0	23.48313	2.839059	18.904285	2847.439	-460.16187	-2779.2173	127128.875
He	1.0	22.81499	1.7575897	0.9282682	5849.9375	2736.104	-2227.312	2.5287514e7
He	1.0	19.334513	3.3562336	8.488478	250.98929	882.182	-731.93463	290885.38
He	1.0	6.975063	14.1732025	23.165161	-110.59515	-4631.334	3645.6882	-328088.22
He	1.0	13.345949	0.18795615	19.90247	-7158.5947	-21462.422	-15218.947	9796.437
He	1.0	10.368689	12.4838915	2.3626063	-5022.5728	-8737.53	-2466.2893	-1.2086606e6
He	1.0	21.772297	17.840532	18.285477	-2728.6606	4694.5835	-3928.0137	-100.34825
He	1.0	3.3647866	7.804094	4.0195613	7138.992	6548.069	-4772.5205	-417186.28
He	1.0	15.571417	14.4846325	6.232151	-3504.5244	9549.197	2050.5789	354134.88
He	1.0	19.474213	3.5533776	10.562525	-904.8212	3439.941	1160.7731	3351.1396
He	1.0	17.295916	14.428243	4.788976	-1974.3329	11342.347	-981.7187	2.311351e9
He	1.0	13.490706	18.833199	21.206686	-3562.4412	304.9312	1418.3114	-93851.08
He	1.0	18.694208	10.113241	13.137435	7010.053	3981.934	3075.324	422707.3
He	1.0	9.876906	12.556318	6.86202	36444.035	61273.234	61446.457	1.121921e9
He	1.0	14.053579	16.227571	4.2806277	-4538.113	2088.4175	2165.798	-144674.81
He	1.0	7.86638	1.1523817	17.281164	-4275.6943	-1018.7773	4296.836	206401.73
He	1.0	5.916737	12.288048	12.4374075	4141.9263	-2720.7634	-7410.9634	47164.406
He	1.0	23.00448	0.8324377	14.563151	-921.2361	5135.661	1361.2507	2528.2395
He	1.0	10.53597	22.005732	9.747643	-31.251076	-584.7749	-3277.5254	539521.0
He	1.0	8.121116	18.648798	20.665733	1485.284	2463.3267	-399.31226	39419.434
He	1.0	12.69847	9.2084875	18.17301	-619.77423	-744.02026	-1537.318	27.100065
He	1.0	4.4112554	6.591708	9.939078	2510.034	-7765.1714	-2555.2998	7.9117635e9
He	1.0	22.188879	15.404384	19.347158	6115.938	-504.11484	634.7145	-19.720472
He	1.0	17.87692	11.478998	9.013413	2004.9799	4020.77	7318.051	1.6147864e9
He	1.0	7.6571364	9.776637	17.908695	1967.1304	322.2828	-4914.938	-150575.05
He	1.0	4.132098	2.1646566	7.1860733	-60660.375	-50772.746	519.0514	997628.0
He	1.0	14.522214	6.6654706	8.4093485	-17091.062	9587.834	-11477.836	2.0184085e8
He	1.0	2.7896838	4.6862173	8.943542	-482.8733	-30294.486	10090.201	1.1794604e9
He	1.0	0.7689898	7.848281	4.841065	1287.1191	9774.861	1229.228	-159.5964
He	1.0	11.305409	13.24245	12.550949	-2097.994	-492.6949	-2119.2744	531261.75
He	1.0	22.072065	19.946854	15.197084	-5142.4136	-9801.465	5792.083	718609.75
He	1.0	9.656629	14.517668	16.361225	6116.628	22.688326	1957.4471	1.04107944e6
He	1.0	4.3209324	14.228275	9.330224	-6423.0996	-7448.6177	23056.58	3509.524
He	1.0	11.065642	17.81521	1.0911056	61445.58	-21695.537	116207.96	509748.6
He	1.0	14.241235	22.463722	20.851791	-4328.0327	2079.3508	6054.9663	1795.9962
He	1.0	10.188751	22.32416	13.537044	-6526.9395	-3995.2876	-1333.8643	-65.25481
He	1.0	21.0212	16.050966	22.552443	9402.991	7139.7437	5429.2666	116772.53
He	1.0	9.888601	19.066692	4.7891636	-90558.6	-73675.0	45583.41	1.4680532e9
He	1.0	22.746506	3.2622054	22.927637	1419.7339	-2429.474	-502.6396	44174.586
He	1.0	13.295297	13.680224	12.542672	-8723.96	-1024.457	2901.8928	-478734.94
He	1.0	13.008736	18.151999	1.2914138	42319.723	7382.6953	4698.6216	52033.98
He	1.0	9.533674	16.124971	15.109467	-4238.445	-4748.2915	1162.57	9006.093
He	1.0	13.461001	4.438089	4.8285484	-1779.3158	4610.9395	9134.526	-1.3621848e6
He	1.0	13.023532	14.277191	3.9766474	554.74963	-2313.627	-5557.275	1.072501e6
He	1.0	21.18185	9.628064	18.283392	10316.248	-1920.5885	777.9835	-262.05774
He	1.0	4.5684004	7.9930067	19.324398	-2568.0825	-3574.7673	-1260.4191	1.5016448e6
He	1.0	22.704472	8.096927	5.11256	-6455.305	7898.5537	372.30988	237564.75
He	1.0	17.641253	3.7613502	14.096787	7183.9893	3696.5806	5406.715	906714.4
He	1.0	3.9458082	1.9066612	18.310724	-50450.07	35402.406	-13092.903	269251.56
He	1.0	9.516303	20.689812	11.132019	9773.844	-4883.5884	5883.152	-333.09592
He	1.0	0.057964858	15.34336	16.8938	-11559.472	-8830.257	4500.3096	3465.4348
He	1.0	21.829529	9.6239395	6.182759	4985.2646	-1550.1434	-3428.1638	-326294.8
He	1.0	1.7355124	14.364206	20.883501	-291.74524	-3465.425	2794.937	143860.52
He	1.0	2.4992929	18.037832	9.216294	2513.52	6360.9243	-1399.5756	27141.568
He	1.0	17.176804	1.7646064	7.3962536	-2394.1191	4363.8286	-1035.1663	741.26965
He	1.0	8.103033	16.695286	7.3185754	-3395.9202	10922.2	1798.4338	18930.28
He	1.0	22.456573	9.909318	3.3143003	20664.502	-16209.8125	-7754.608	2.6186084e9
He	1.0	22.18512	15.385897	13.932458	-13395.542	-6324.235	3189.7598	-467.97574
He	1.0	21.441435	13.633747	15.666069	1385.2388	-2844.78	3058.3809	1.2393905e6
He	1.0	10.286106	12.373831	9.540225	34571.82	27421.418	17217.287	361072.25
He	1.0	16.946312	14.456784	0.154307	-7594.208	651.0627	-6534.4727	-595067.9
He	1.0	6.514502	2.1935349	8.739233	-2768.6367	-454.87872	-789.33496	8392.37
He	1.0	7.8013287	9.252775	10.308303	832.0675	2377.1123	-4324.1445	1.0429379e7
He	1.0	9.292886	16.621943	22.162949	40495.918	12784.677	69607.91	578466.1
He	1.0	10.542383	2.0018258	3.2302463	-6341.2676	1238.0316	1039.399	-467469.62
He	1.0	15.776731	17.318642	19.094843	1113.733	8655.756	3524.4238	2.567802e9
He	1.0	20.420233	0.7379635	0.56608796	-4811.3037	2429.174	6211.5347	7.013489e7
He	1.0	4.619654	15.357196	7.7146673	7964.2134	7271.4775	-3989.107	5.108084e9
He	1.0	13.895545	8.717179	9.26827	10831.96	6495.218	-79116.7	8.5828966e9
He	1.0	6.7813497	23.964167	12.077387	-393.6145	3213.669	-2729.8325	-10.653586
He	1.0	3.3757799	1.0093127	15.840555	-2223.8975	9087.329	-5122.8164	2.2406042e8
He	1.0	11.22733	1.2122899	5.2503057	-3311.956	2694.855	-772.0002	499828.66
He	1.0	2.1906571	8.460085	16.19053	-7058.6655	-8920.248	-5003.692	7.1372425e6
He	1.0	5.0126815	2.5575588	10.424503	805.6352	5888.1313	4643.254	-518802.22
He	1.0	17.307985	2.6333501	12.478131	-2598.1577	-1359.7572	4668.115	201.13153
He	1.0	10.621828	18.167461	14.693417	1542.9497	900.65295	930.7304	511248.44
He	1.0	0.90423393	22.812151	6.3139663	5133.508	-38666.59	8486.775	1.1672836e9
He	1.0	4.1206107	0.12582804	1.4019095	15575.13	17643.637	22443.707	7.40674e8
He	1.0	9.547952	19.847008	15.790737	5876.655	-761.6603	389.6897	509071.78
He	1.0	9.187343	13.486123	22.299543	3931.0352	-647.10504	3388.1382	-160346.95
He	1.0	1.7692747	18.51748	5.290726	3765.1067	1112.3953	8382.782	289622.03
He	1.0	2.7722857	11.25483	8.911927	3642.2046	963.1269	-2768.229	657830.0
He	1.0	24.011263	14.564742	20.048655	-9189.285	-1944.6095	-24184.193	148473.89
He	1.0	2.6065254	10.220456	15.020076	-306.62045	-3867.7139	-5310.2554	759420.1
He	1.0	13.112193	11.366481	6.413174	6644.0015	-2859.5908	-3704.8855	-637183.4
He	1.0	14.78432	22.004496	1.199331	5697.732	4790.102	5599.733	1.0165291e9
He	1.0	22.271082	5.751513	4.274255	-6647.995	-1548.6382	-4295.4463	90702.0
He	1.0	2.0330904	9.378743	21.654392	277.9149	-3325.5334	-916.951	53.690193
He	1.0	10.686395	8.996701	23.960335	235.03816	2020.7716	-2809.0356	679601.9
He	1.0	12.51714	18.626944	10.269238	-692.81085	423.02017	5308.0615	367.596
He	1.0	15.70227	21.269852	6.2435308	9245.085	13419.145	-10011.047	4.7808787e8
He	1.0	0.5005179	9.73586	16.859358	-108.43237	-2699.7637	-7500.7114	9.846615e7
He	1.0	7.3783655	3.0440528	10.327621	1042.2485	-3830.1453	34.435085	1631.2152
He	1.0	3.5313249	3.5244055	17.224903	-7086.158	12279.654	-12335.492	27128.783
He	1.0	21.301065	20.368814	9.393929	2545.3706	7269.2866	2350.6924	6.09816e9
He	1.0	8.910964	7.5837936	8.420631	4195.4146	9660.089	3619.645	-1.1129439e6
He	1.0	12.792102	19.881329	2.5543213	31956.57	-45232.113	-16283.875	5.6050304e9
He	1.0	5.9149194	7.7920413	14.522324	4369.8516	-7074.904	9914.75	1.0878347e8
He	1.0	7.7881656	21.432726	19.175209	-51516.11	-1304.1218	-43850.855	1.7817677e9
He	1.0	17.59061	8.534445	23.848383	660.7177	1175.7104	-1831.1212	113222.95
He	1.0	10.365958	5.207948	22.31956	1310.751	5160.6074	-662.1322	2264.462
He	1.0	17.587755	4.910571	19.678461	-9770.234	2780.3704	-6877.276	-993781.0
He	1.0	6.096317	8.278365	12.592706	1844.5477	6475.1714	-1208.0483	37160.453
He	1.0	6.78253	0.37776965	22.762148	-5428.49	-3540.805	-771.4419	-56.756714
He	1.0	12.587029	15.076478	6.137949	1388.8694	1343.3828	1698.8674	132.11438
He	1.0	19.217777	20.437447	21.255238	4908.37	16635.49	22800.744	167136.2
He	1.0	19.816084	6.6118317	15.45043	8478.859	2761.125	8661.418	22883.562
He	1.0	0.04464478	21.218124	7.600487	3556.9841	3182.1147	-11028.269	15123.72
He	1.0	12.074652	3.44257	10.461409	7849.929	-5257.718	-2300.0078	-134.9719
He	1.0	19.344002	23.991655	20.006239	2208.9114	-556.989	2423.782	737238.0
He	1.0	5.369903	18.25846	17.312712	-960.8804	1231.588	2887.8425	324910.7
He	1.0	12.0429535	13.47955	7.2887273	-98.41539	4739.2207	-5479.668	953794.56
He	1.0	21.43651	19.951677	21.564524	-7672.322	-15284.398	-20677.79	159488.14
He	1.0	8.773802	8.134823	12.447201	4313.234	-1468.7172	1771.6819	389553.75
He	1.0	2.2427597	13.036219	15.854804	-779.43256	1304.1814	-6621.156	-512015.6
He	1.0	5.49721	17.45382	5.2020483	-1910.221	5516.6807	6548.5815	2.8713405e6
He	1.0	20.96869	15.744418	7.5717654	-35239.19	16360.337	14637.583	3175.089
He	1.0	17.006668	6.736288	18.814413	-189.55724	-1455.4552	7172.53	-234469.45
He	1.0	4.2774944	15.86285	1.6986084	6952.9	-1503.7562	1406.5494	1.6214583e7
He	1.0	7.889232	3.769018	3.671959	5244.947	3301.7163	-3727.6873	88988.18
He	1.0	10.93597	3.0220885	6.580276	-3892.9238	259.88293	6735.36	82394.36
He	1.0	19.502289	7.254334	23.53481	1715.8088	-6368.9365	3644.2473	-44.170666
He	1.0	15.39687	14.395387	13.547207	-903.13495	-918.5114	-1205.1864	6.445251e8
He	1.0	9.825584	23.24915	3.575241	5485.3696	12849.207	-24987.934	5.4069644e7
He	1.0	1.610455	7.481216	21.108175	4826.0557	-2548.3496	68.23982	1.3524184e6
He	1.0	7.8017774	6.6590014	22.086134	-4525.4805	-7846.585	-9768.205	6.008954e8
He	1.0	17.478064	10.813425	7.1741953	-6690.2817	-5506.1787	-15453.667	609206.3
He	1.0	22.7721	3.31013	11.692057	3987.0286	-2472.62	-593.229	14.981159
He	1.0	14.435841	8.892889	13.524588	246.7316	-3970.852	67.781334	1.1311486e6
He	1.0	3.8147821	10.238204	22.993862	3609.4285	-1818.8134	1657.0732	414782.66
He	1.0	20.643162	13.835649	13.256833	652.61633	-465.70853	473.08566	82452.48
He	1.0	5.195628	3.437354	4.687667	15256.321	-37534.207	20743.91	1.379559e9
He	1.0	16.607952	11.567412	18.589045	2211.6462	2124.521	662.1172	415475.8
He	1.0	20.218723	14.628299	0.28151363	-10096.153	-6907.8423	118.840096	3.2720348e9
He	1.0	11.860381	4.801947	12.240718	4003.8796	1075.2188	539.1893	235675.3
He	1.0	12.126707	11.86069	14.672069	5545.289	1049.525	-1673.8163	829553.9
He	1.0	0.19461727	13.263887	13.93114	4757.332	-6317.9805	6747.6626	-121.412315
He	1.0	0.57085687	23.668985	15.971815	-3940.231	-2469.206	1918.3098	277.17276
He	1.0	11.723238	23.830942	3.3523796	4796.225	4289.1367	934.58105	9887.404
He	1.0	11.574554	10.671835	2.7511668	9351.202	260.42493	-1780.6788	-468994.0
He	1.0	12.784385	9.96505	20.234905	654.71606	338.68375	1438.4261	4.7755496e7
He	1.0	19.13262	13.575797	2.1430852	1833.2308	6574.608	5679.6104	1.9255855e9
He	1.0	14.775495	8.332965	22.800537	545.53406	1485.8536	-4873.137	158172.83
He	1.0	7.314265	6.8064437	12.000322	-6464.087	-549.51807	5336.2363	5.5156604e7
He	1.0	6.0716643	7.728368	0.18961196	3336.2007	-3646.3557	-10400.043	-281.08377
He	1.0	21.504047	12.052772	8.007156	3417.942	6364.3867	-1730.0428	126678.66
He	1.0	23.351803	21.493801	16.900328	3766.95	-4231.5366	6763.7925	-110.483734
He	1.0	20.755579	9.730078	8.869847	1504.7905	-3817.1125	-10875.749	30051.248
He	1.0	5.1678576	8.893888	1.6171701	884.2887	3443.2776	-3105.208	43.674442
He	1.0	18.826698	14.197944	16.915705	-3696.4966	126.246826	-5517.2207	1.30385704e8
He	1.0	9.589403	8.078168	21.975977	48955.754	-28077.84	-28725.838	166851.02
He	1.0	15.773822	12.476804	12.872282	-9269.558	-849.4893	-349.2958	-638616.25
He	1.0	12.503215	18.442352	23.175722	-1624.8201	-575.36646	3368.9346	486847.2
He	1.0	5.3466005	15.940901	3.6744382	5385.078	-7876.0913	3306.798	9.481402e9
He	1.0	22.2267	12.571804	5.868211	1147.1329	968.22485	-1503.0172	178552.62
He	1.0	5.6194715	3.0859869	19.63358	-5847.9233	-605.1255	-986.465	213715.0
He	1.0	12.777876	1.6250823	0.19784509	-3290.0115	-6463.039	11431.725	1.9504496e7
He	1.0	15.951189	0.07829131	17.110626	-6400.4683	1144.4336	-2020.8083	-367762.5
He	1.0	1.0334318	21.094637	4.104127	154.30022	2270.2927	-279.0916	-17315.133
He	1.0	21.610447	18.280258	13.858894	-1431.0962	-203.34154	2327.241	408415.94
He	1.0	18.987087	0.073956415	8.848774	-4933.9805	-3257.2227	-2513.2988	-404375.56
He	1.0	11.897637	4.8243346	23.658192	3943.9531	-5268.0513	-1156.2206	-377486.28
He	1.0	10.267542	6.438197	19.87423	5046.352	-4625.742	-5141.6504	50648.33
He	1.0	5.9954853	6.4158425	2.5629084	-1359.6235	1899.014	6379.538	2.8812265
He	1.0	6.6910963	22.59095	4.632938	556.0758	1763.9395	4166.5054	186.65611
He	1.0	2.9761581	8.715347	10.502274	11939.406	7168.6855	-3086.1387	1.937257e9
He	1.0	22.992092	5.76576	22.145197	-985.15656	-3036.5615	78.61442	237.23685
He	1.0	15.314852	1.96083	23.384506	-22077.104	25821.527	23680.207	243574.81
He	1.0	10.720475	18.345707	11.117227	4943.367	-5460.4604	-5591.5557	58738.367
He	1.0	16.358202	12.87189	9.23284	7293.173	717.16705	-1641.1011	46647.707
He	1.0	2.616977	23.918665	12.675532	-3752.6555	176.21828	-7505.6416	85.75963
He	1.0	1.2909274	19.961454	14.535495	-5308.1606	-3227.3108	124.630516	199436.05
He	1.0	19.5782	9.587643	7.083345	-316.56238	2892.12	122.86543	37.962082
He	1.0	13.449814	12.067569	19.709835	2673.5703	-2711.4102	-375.49106	2.7473142e7
He	1.0	0.6770492	12.645919	20.702711	-3591.699	10863.287	-4505.6387	2060.703
He	1.0	17.965433	4.4737034	6.9253945	6306.835	-440.83334	-378.14322	-230477.39
He	1.0	3.2154155	7.6149707	12.35522	2875.2996	9330.119	-195.84608	4.940201e8
He	1.0	23.667545	16.107782	11.694666	-6221.755	-624.87787	-6641.448	10669.602
He	1.0	20.483154	18.292633	6.3561077	-5898.5483	6365.5913	2738.7798	-827712.6
He	1.0	0.78493065	1.8297644	8.851014	-2372.1414	-1907.0422	1289.7103	48.243595
He	1.0	5.835363	22.26246	19.05728	9149.464	6426.841	11280.645	4.616469e8
He	1.0	8.6718645	2.0331213	4.7546782	22807.389	76645.97	39997.59	1.3569566e8
He	1.0	15.25371	12.2512045	1.5395334	-1190.9976	-3882.7432	-8099.5674	-188.48766
He	1.0	15.335907	4.1399107	3.547191	930.79156	1631.5477	-7459.3247	196.87988
He	1.0	0.5294577	10.019867	22.810995	7771.848	1765.0852	-32680.04	1.1214059e8
He	1.0	4.8090224	16.570429	10.249257	1271.8093	2708.5752	-2201.05	103.40953
He	1.0	8.48447	4.8747625	20.881641	-5041.9365	22399.896	-46375.176	42808.383
He	1.0	19.001955	12.314218	17.55694	-3517.6235	-11405.348	758.4949	57061.754
He	1.0	19.287014	15.184018	22.079498	-5537.1704	-7497.077	-1839.326	1.9586926e9
He	1.0	19.773605	16.411774	14.156834	-9197.794	-944.0227	-4121.054	18914.287
He	1.0	1.6058159	5.307425	3.702201	-408.94894	6528.7847	688.0658	200299.11
He	1.0	4.8498893	5.0978174	19.205755	95.26913	-4009.65	-558.12854	51.076134
He	1.0	11.738699	4.994657	6.1754937	1656.6432	2146.197	911.0777	690.54675
He	1.0	23.837193	14.214589	22.001476	4898.69	-5169.166	20016.963	4.9861965e8
He	1.0	23.787586	1.4785765	12.009746	-7305.1357	-6896.528	327.8473	1.6559474e6
He	1.0	23.69528	0.3098248	9.551024	1201.3644	-140.1504	7563.261	2.5512028e7
He	1.0	0.8653529	13.273134	9.361038	38193.586	-5610.1387	16414.514	901608.1
He	1.0	6.9874	10.009078	12.038178	-2419.553	-5241.281	-3653.3557	-52.485386
He	1.0	5.0710425	16.620674	13.462939	6462.676	-4035.3628	-2950.0764	-62.847237
He	1.0	9.85257	8.388461	19.686174	-1592.6393	2084.8315	-569.7261	1.2709996e9
He	1.0	3.278987	0.3966378	20.209124	6719.6626	2498.6677	-1209.8456	1.9276515e8
He	1.0	0.72427046	10.136634	0.7077973	-9432.094	-11127.602	6927.2935	5.2902458e8
He	1.0	20.541496	22.281208	20.152298	-2477.7917	-1308.8853	2417.7607	3.8213135e9
He	1.0	6.9197454	3.0664735	22.289425	-1242.547	-2397.9482	1646.3867	705299.7
He	1.0	22.491947	19.923418	11.765783	7154.3403	-916.1525	4206.805	-114.12702
He	1.0	13.336336	18.842892	15.201753	-2993.2605	-203.6043	-6402.4136	24250.01
He	1.0	20.741041	2.8284876	15.959576	-1497.0103	4394.79	-4181.643	-102109.08
He	1.0	11.7048	0.017112797	18.508268	1277.9401	-5468.7944	5032.341	1.0434054e9
He	1.0	14.784533	19.167025	2.779717	3719.3076	3603.6538	2027.8092	-48.42465
He	1.0	17.839579	6.4043593	13.93824	14566.861	26180.146	27439.592	3.27873e8
He	1.0	9.288754	3.5117357	19.6627	2733.7593	-2144.0454	-6465.1733	5654.2495
He	1.0	6.587562	23.233355	20.779243	3470.6665	10836.18	869.12006	-316.1143
He	1.0	10.94139	2.0866857	17.071121	-10014.2705	-18932.348	42341.406	174486.08
He	1.0	19.615967	20.16589	12.572569	-2279.34	-133.31242	1326.5831	4.327126
He	1.0	11.966635	21.262266	22.287626	-2346.6838	-1319.6188	-705.63837	59919.8
He	1.0	22.907204	0.7456431	7.766809	-575.66785	-1424.4093	-2765.1858	1237.3662
He	1.0	14.273125	14.066203	8.902429	-3449.3274	463.29037	-4787.1655	32.651142
He	1.0	11.509815	2.9533172	15.381743	45651.844	-5226.5674	59324.047	1.2077064e6
He	1.0	9.987548	11.703385	22.842373	2727.5068	-518.75745	-3302.5908	1.190033e9
He	1.0	12.457973	12.033169	17.852983	-6849.8564	1049.5491	2405.6494	2463.7017
He	1.0	23.652256	5.9691343	19.467049	-5664.5615	-21163.49	4039.4573	1.5488905e6
He	1.0	16.923819	21.890257	4.603636	4513.862	-7659.2905	4738.659	-1.0633076e6
He	1.0	20.640356	6.896014	2.3432426	-8400.551	30505.174	-6115.405	3.10228e9
He	1.0	12.776471	0.92081594	7.7117043	3522.5881	3514.715	-2400.532	1.3644382
He	1.0	14.781008	14.372411	2.2447174	3013.2527	3264.1511	-1960.6039	82.82701
He	1.0	15.034123	15.288265	20.200964	4384.8486	-907.289	823.1614	325866.2
He	1.0	10.1182995	21.740292	18.342194	-1414.9829	3873.9836	-6899.4067	-565010.75
He	1.0	18.032137	17.310806	22.637054	5073.9263	3125.15	-2769.203	1.6279355e6
He	1.0	14.322934	10.441968	18.29094	6445.282	-74484.89	75039.17	1.3968146e9
He	1.0	21.325706	0.832564	19.133177	651.95404	-1943.1793	-1026.9056	69701.17
He	1.0	18.229183	7.692765	16.003754	-4987.9497	5530.084	2463.081	1.0463044e9
He	1.0	18.153822	14.683852	13.407412	34839.4	80556.93	-64603.434	1.1140039e10
He	1.0	11.825838	15.020501	11.626888	3082.6858	2955.264	666.7205	-113411.55
He	1.0	15.550599	18.705908	15.323322	1852.482	-2140.649	-2958.3933	1.3619938e6
He	1.0	13.0852785	8.12672	16.401962	4643.134	9759.737	8130.46	6.455564e7
He	1.0	1.9051789	3.2475357	2.3473043	-658.6452	-1633.5829	485.51193	153.93684
He	1.0	8.777071	9.046238	14.590281	-4654.66	3364.6348	6250.4736	2.3145342e8
He	1.0	7.013795	10.482098	22.779562	-831.3516	3567.3286	3320.4045	1.7148005e8
He	1.0	5.861766	17.726793	1.0395858	360.45078	547.8592	-3095.6565	1.1595734e9
He	1.0	6.6740026	0.47870058	14.885291	-23253.936	-32479.453	65355.25	4.0673341e9
He	1.0	16.158567	0.635648	22.17375	10465.225	23185.037	-8661.867	2.4634084e9
He	1.0	12.525703	17.769876	7.5498867	1543.4545	-8298.511	-10257.701	1.6387231e9
He	1.0	2.2827787	11.88208	21.608694	-78990.79	8328.697	71044.35	4.9174426e9
He	1.0	0.06428883	11.060834	8.938397	-6096.583	1304.0193	-3111.9326	2.7369546e8
He	1.0	0.107300006	12.034092	6.8574667	6702.7173	-5756.8594	196.11662	-896180.25
He	1.0	10.656013	20.012863	0.7610402	-4507.7466	-362.06863	-1707.2318	5707.3286
He	1.0	6.259082	15.78652	0.15894765	-2907.0447	-4524.205	-2609.418	119846.59
He	1.0	13.877311	6.0588956	16.078823	-2728.0913	-706.2464	-6267.362	165755.5
He	1.0	18.320627	4.3211927	4.9612837	-1837.4005	6018.028	310.80087	73324.21
He	1.0	18.616388	4.5839467	22.392853	7837.528	3908.2993	-22343.568	744476.7
He	1.0	6.1136646	22.839514	10.413458	37.643417	-4321.49	3569.5803	215.0967
He	1.0	4.0394607	1.4750353	12.003219	-10566.951	-1931.0543	-667.8539	-569287.44
He	1.0	17.969212	9.604871	21.190578	-2722.432	-1827.2616	-1042.3907	72304.445
He	1.0	4.5541005	16.364092	20.58009	-29249.986	22678.066	-51451.875	1.5188146e8
He	1.0	2.2315645	22.684372	7.9347816	-2418.301	6131.748	5756.0586	-115.466576
He	1.0	11.0089655	9.279653	13.655938	510.44385	5060.8477	-8197.056	1.7918205e9
He	1.0	3.746809	7.9836936	23.579512	205.63142	-4244.574	4752.1597	97.8273
He	1.0	19.888292	18.593895	19.639126	3620.3115	-30972.83	49430.2	1.921905e9
He	1.0	2.6530533	21.773657	16.056292	3561.7366	-15824.368	-7137.4883	126402.305
He	1.0	23.756298	10.229638	20.16618	-2509.215	-4539.292	274.6156	786357.94
He	1.0	6.782144	18.271145	7.7159457	-2153.4036	-1775.6152	3098.4817	219859.8
He	1.0	20.431614	16.247028	9.505227	3075.635	3358.9866	459.02463	2.980474e8
He	1.0	14.927701	19.60943	7.02516	-68286.59	49400.188	-44375.02	765035.5
He	1.0	22.143873	4.8060703	17.502306	-18991.025	-1888.2241	1411.4064	2.3589455e9
He	1.0	16.129803	18.267454	23.457726	-3121.9155	5951.3774	5550.4224	481034.84
He	1.0	5.6650476	20.19899	14.567755	-834.913	5349.7866	-1220.9991	228.97357
He	1.0	16.27816	8.088302	12.582397	-9658.123	12126.604	2498.505	25120.4
He	1.0	19.49506	2.6237507	3.2801135	19269.902	45381.2	-20565.502	5.292428e9
He	1.0	0.54335403	19.787159	8.902593	-1515.8127	-2293.1477	-874.47906	6.215042e7
He	1.0	6.513668	11.5029545	16.794659	565.46155	-138.15402	-7676.315	439821.16
He	1.0	0.4942141	20.159594	1.5288165	606.5828	5626.1616	-2249.334	169.46664
He	1.0	22.501936	13.281448	1.7805575	374.64096	2588.6265	2854.3987	4.79055e9
He	1.0	8.273516	11.404113	11.15031	1960.7855	-5083.42	1180.7017	-3.791138
He	1.0	0.746197	7.597917	23.33508	3967.9207	-3987.94	8080.907	112627.49
He	1.0	6.551104	19.640879	21.524364	-7319.621	-27913.531	-2918.0315	68768.21
He	1.0	8.448012	5.032393	5.367025	449.52707	5752.329	-2707.7332	439951.72
He	1.0	17.661045	1.9576273	9.392948	1383.93	-2237.8206	-2555.8794	464.83456
He	1.0	13.637047	4.0397477	0.68548703	8936.238	3902.6953	18168.996	726201.94
He	1.0	14.850746	22.821373	14.261768	-17026.703	63808.527	-95781.74	830543.44
He	1.0	8.116007	18.689749	9.323747	4152.099	1805.9205	-11003.139	394993.84
He	1.0	8.004687	7.4606795	2.3727293	-34782.926	-5423.5103	-8971.477	1.0015029e9
He	1.0	16.594786	9.626898	10.411745	-263.78033	1331.1371	4870.089	416121.38
He	1.0	10.656744	23.121147	5.451902	-18128.406	7964.3657	-10642.565	3.1776312e9
He	1.0	23.301836	4.7564135	13.7045145	-3976.394	-2652.2676	-5079.3784	3.5839053e9
He	1.0	3.605159	11.250784	5.8111153	-15604.397	10196.439	13855.235	1.2178725e6
He	1.0	21.601162	15.921894	4.993834	109.31049	1989.6968	2888.947	2.34012e9
He	1.0	10.450814	15.850296	1.7030361	-126.07583	-8034.2383	2943.259	424944.25
He	1.0	21.259113	16.680708	16.514753	-2382.9202	2128.419	-5942.2236	130.23047
He	1.0	17.673094	3.0218005	21.216223	83.7181	-2915.243	1411.5536	142.72752
He	1.0	5.133624	13.069231	5.07028	-10388.021	8454.718	-6697.4326	-1.3606572e6
He	1.0	21.269627	22.700985	0.22786291	1094.5161	-1087.5442	3167.8635	458759.25
He	1.0	21.654879	19.340763	0.8433607	8002.0703	7202.187	-56556.254	7.9749176e9
He	1.0	3.6979136	22.56352	19.811155	7484.6294	-4205.1006	2542.1394	6893.624
He	1.0	13.181243	6.3279815	5.6671214	-2294.6843	-4366.899	12711.709	-1.5140205e6
He	1.0	9.386217	14.932705	13.468609	817.8995	2261.6667	-285.648	26228.47
He	1.0	4.7378125	1.0912868	9.016692	4984.613	3216.7634	2785.33	251.20786
He	1.0	8.501609	8.956368	5.8780513	-1410.5204	-1996.3696	-271.34995	36.223667
He	1.0	18.205902	21.820854	22.263393	-8598.407	24937.742	18780.953	7.8405523e8
He	1.0	11.862893	20.541632	10.567854	-2663.2102	-3092.2776	-2737.1726	81962.48
He	1.0	7.028947	18.560736	2.4384196	584.65857	-4401.537	246.55481	62841.92
He	1.0	16.266817	12.747441	16.122877	3768.965	-205.64598	-7401.4624	135637.61
He	1.0	22.584408	11.33807	1.0685867	1860.388	-5730.7485	439.7789	680939.2
He	1.0	15.484257	2.6642318	14.418971	-3119.9758	804.6601	3285.359	2.9290692e7
He	1.0	3.6090252	6.4715605	14.165416	-695.9987	-3496.0017	-2888.759	293397.5
He	1.0	14.232783	14.120077	21.689594	-767.13007	1197.1447	-2117.1406	730779.5
He	1.0	17.40391	10.090075	1.1527467	-349.45428	-652.7493	-1064.3431	166780.02
He	1.0	4.504013	18.225248	19.118628	-838.8013	2712.6729	-46.341446	31.219309
He	1.0	19.298496	20.647448	4.3078957	-4046.0137	9629.195	458.67395	-280152.25
He	1.0	23.937353	12.876749	4.497286	-5863.0835	-6654.499	-3901.7803	-29.64508
He	1.0	7.21732	14.946652	6.9443326	-1804.0614	-14712.675	494.95798	195622.94
He	1.0	4.1169333	22.732332	5.849577	1584.8978	-3603.6719	7631.7886	102443.72
He	1.0	4.8851094	6.5316706	12.543055	1455.4731	-10434.993	4449.071	1.5138952e9
He	1.0	14.91726	22.307089	8.114104	401.96808	4808.348	1310.4983	99.19368
He	1.0	13.47049	1.7781242	15.071187	-6518.79	-14509.385	-31725.432	298781.28
He	1.0	16.8559	1.3400875	0.8251956	3127.1338	-2128.146	-5212.052	675216.2
He	1.0	18.354404	6.150778	17.291042	-8054.9546	5129.5093	-694.3572	-900722.06
He	1.0	18.379646	16.174047	9.667892	767.2832	-5130.787	-3358.05	913784.5
He	1.0	14.280662	18.753607	18.853523	103137.305	35442.344	-36813.91	879207.25
He	1.0	15.11681	9.449384	4.3985496	3712.037	-6496.814	2938.3142	-562728.0
He	1.0	17.882519	4.818067	11.98155	381.04095	-6137.6885	4830.446	166277.06
He	1.0	9.839824	17.691559	16.717678	2828.0315	821.64465	-1413.5638	7.814915e8
He	1.0	17.195545	20.783768	13.106386	14407.907	16384.969	2897.5095	2.775142e9
He	1.0	11.775534	6.9844975	23.699827	4536.95	-5759.121	1227.0398	-59.96218
He	1.0	0.66225064	7.276877	6.886535	-3476.439	737.3198	-2581.478	307918.22
He	1.0	4.149472	6.8683352	16.841183	454.51718	-5800.623	-2994.3447	-10018.726
He	1.0	8.379367	20.974796	17.117794	-6575.3843	65723.31	-56616.85	987217.0
He	1.0	16.957884	0.98064774	20.02159	532.08093	2536.2388	-633.66254	3.6469523e8
He	1.0	2.597537	4.00599	5.189646	-49087.094	-34042.82	-61090.684	3.908208e8
He	1.0	4.570609	12.153034	10.899652	-9496.6455	-41457.95	29142.422	713577.06
He	1.0	10.649517	5.0433636	3.7752056	12063.641	6783.341	-484.52634	674706.1
He	1.0	7.9062643	13.334538	14.99706	7365.928	-37829.887	15807.194	154951.05
He	1.0	6.181839	14.534308	18.695389	-12394.432	3361.8274	-49444.54	4.0022354e9
He	1.0	10.063384	3.4598274	4.838891	-4295.7173	-2282.0293	-5777.855	23003.873
He	1.0	6.870445	14.749646	1.8423386	7719.1465	-3552.1306	-3102.2095	1.2850747e9
He	1.0	6.654186	17.4434	22.25945	-5777.1533	4649.1465	-640.94666	205693.58
He	1.0	21.438606	7.5836525	23.133423	1880.8312	-1011.6799	-8199.118	7.119257e7
He	1.0	18.572344	18.452513	7.0500255	-529.06146	2061.8389	-2148.25	1.745158e9
He	1.0	10.702869	20.128988	14.098521	-523.35785	-7409.1523	-440.66205	77.062004
He	1.0	0.970368	3.681698	12.950973	-2304.193	734.30237	-3183.9885	102.85975
He	1.0	19.72413	1.7609146	14.451831	9346.917	51.327785	-1485.478	42.08056
He	1.0	17.541761	21.113373	17.377975	2516.99	-1391.6133	-8524.387	6.951287e7
He	1.0	23.134045	21.537928	2.3041391	-2687.7607	-6416.0674	-8041.3066	-1.04847525e6
He	1.0	12.902647	3.117402	13.559995	-9027.269	-886.45984	-400.315	1.0231138e8
He	1.0	2.9894793	13.844757	17.78587	6588.414	-909.0197	-1997.6913	-0.13009088
He	1.0	0.36997667	17.796247	2.6948264	-49954.87	74706.83	18751.398	82080.31
He	1.0	18.393496	9.976277	15.972821	-34799.93	-7697.997	-11990.458	37545.31
He	1.0	5.608143	14.436996	14.690187	-1411.6995	-447.66827	-3879.489	334975.62
He	1.0	17.086245	0.92916214	15.581279	-2977.115	-1677.8306	4110.3228	-260457.92
He	1.0	18.933994	14.521177	5.962582	-6617.0845	4077.6648	-7701.3613	31134.201
He	1.0	20.948679	13.076356	23.34778	13372.241	-16445.05	-8253.695	5.0779023e9
He	1.0	18.207878	11.529357	23.35655	-1835.396	10123.145	2043.7925	-226.74805
He	1.0	0.5773245	16.28643	22.836195	-1611.2277	-933.14105	-316.30945	238.60304
He	1.0	23.5021	18.525831	10.021646	462.01727	-1465.4445	-1379.2814	264.137
He	1.0	12.704713	11.537882	21.489668	2384.5596	1726.5885	-3012.7578	788649.2
He	1.0	0.028992658	23.760588	12.826313	3433.9663	1887.8959	-14188.029	1.3100998e8
He	1.0	17.936327	19.277802	8.75567	-5102.477	-4147.0415	1259.2203	277356.25
He	1.0	11.6517105	22.155148	16.982384	61.907234	-4720.151	-2203.3271	-11.456727
He	1.0	12.481898	6.4063807	11.219982	906.03876	-1315.0782	2190.6748	415415.66
He	1.0	3.367199	11.381488	16.483818	1143.5536	-5390.339	7853.7837	-219.3626
He	1.0	15.414988	15.260461	10.25409	-592.221	-5353.44	-1697.0164	707775.7
He	1.0	1.0597461	1.8058364	22.927788	19713.492	-80987.64	34988.316	467084.9
He	1.0	16.73387	3.3467548	5.685317	485.9413	-1396.8038	7844.628	29810.682
H	1.0	16.119736	3.296693	0.71334493	-392951.5	347939.1	-70832.46	-4.601871e9
H	1.0	6.9227214	12.817535	5.9112425	-142363.86	152466.47	42687.688	1.3992258e6
H	1.0	15.76323	7.3289433	4.841227	212005.53	-119451.164	-301721.2	1.6992841e6
H	1.0	7.62205	18.614586	13.254005	119961.57	53232.355	-130597.47	90809.04
H	1.0	21.887936	3.6931543	5.8164883	-197162.77	346823.97	-319155.12	-452286.4
H	1.0	18.030706	23.8222	24.021017	133809.69	-460582.7	-80952.92	4.0269192e9
H	1.0	20.158827	5.4921937	6.175366	-134339.78	196090.73	267547.4	7.5731584e8
H	1.0	19.88443	6.650151	9.317529	-37363.137	190055.98	-82505.18	-1.1875349e6
H	1.0	19.938799	10.705392	2.2746859	424088.1	77157.06	13492.145	-3.302942e8
H	1.0	4.7688427	10.1889715	18.843777	246075.5	-252886.42	95508.734	1.1924603e9
H	1.0	2.5645967	15.76813	22.940678	-49846.773	-347856.22	132087.06	635190.25
H	1.0	4.9269843	4.171886	8.816979	180207.22	148267.28	-12031.319	3.9533194e9
H	1.0	3.683023	2.6624682	23.796755	751054.3	74141.78	190228.44	-796878.2
H	1.0	6.537727	11.155504	3.6820757	-96908.21	403050.97	143514.08	-74700.43
H	1.0	10.944408	1.8671124	19.169304	141338.73	1218.9752	-532979.5	-4.8056125e9
H	1.0	2.3692632	5.3630543	16.041178	68347.76	-88084.4	512036.25	2.4604506e9
H	1.0	3.1256673	13.598091	22.337816	-164465.58	-371830.56	-64660.223	1.017463e8
H	1.0	1.8380082	10.971711	4.4659724	-72955.77	209020.89	197118.92	343215.4
H	1.0	16.384687	6.3335686	20.75304	12599.842	12545.748	-73009.65	2.369745e9
H	1.0	0.7015461	7.4365697	12.084963	288548.1	307428.16	284434.66	-1.0727152e6
H	1.0	11.274385	20.234482	4.0508885	42758.074	312762.66	401409.88	670286.9
H	1.0	12.100118	22.82965	6.824017	4942.849	-93301.86	24173.785	3.2030415e9
H	1.0	5.327183	0.64718133	18.915236	-206264.66	137139.44	-234055.22	-2.4769572e9
H	1.0	18.44551	13.022578	3.9922187	-423658.9	334985.88	88892.14	-1.2470391e6
H	1.0	4.699597	20.857521	21.47678	-37904.48	-404886.4	54570.645	-3.6683856e7
H	1.0	20.167889	18.33388	3.6873412	93913.12	-58445.605	349405.06	-238726.89
H	1.0	15.666558	7.322873	2.641649	162687.52	136624.8	253456.61	433767.3
H	1.0	20.880182	21.542667	14.276466	-336755.78	54131.85	-160028.11	-2.5861343e9
H	1.0	2.3373814	21.780334	13.732324	-114741.56	333343.0	443098.53	-299238.66
H	1.0	17.51308	6.984934	1.4681219	106387.75	-192314.64	77025.26	5.7109024e8
H	1.0	10.991503	19.183527	7.442405	-7021.578	4448.095	-238658.36	169915.89
H	1.0	0.43829346	16.875158	13.367738	450255.03	-368098.34	-205901.53	-7.037011e8
H	1.0	2.0015502	23.935486	22.826298	222472.06	604361.3	205992.94	-851059.56
H	1.0	21.568415	3.7912736	13.949869	112337.69	61390.086	30919.873	-387129.75
H	1.0	0.24486238	7.9593472	9.192654	-94884.81	257427.62	-123895.63	-3.173015e9
H	1.0	7.1440606	5.348309	7.317775	307930.8	-354892.62	318306.3	-2.8443502e9
H	1.0	7.8063016	2.0205662	19.4829	-944750.25	102167.14	146055.88	-87235.82
H	1.0	20.240337	17.942928	23.750776	-240460.52	376030.34	247162.92	-2.0186627e9
H	1.0	16.38842	19.592512	17.988827	75240.76	-158351.27	-774082.9	4.6984366e9
H	1.0	21.051212	4.9428906	2.4236064	3475.6313	-391240.97	-81974.88	1.1319469e9
H	1.0	9.812081	12.9886055	14.26961	-227025.66	226749.61	-312865.47	406317.0
H	1.0	0.7380265	13.024703	17.660496	271780.44	170343.5	-478895.9	1.4185755e6
H	1.0	12.910613	16.629143	21.121937	-44088.76	279027.94	-227382.58	-1.0906757e9
H	1.0	14.378597	17.00793	6.799149	158046.45	-356136.3	40732.305	-257963.22
H	1.0	23.89857	0.2622808	3.0445197	-133577.3	21376.955	635911.3	1.0780269e9
H	1.0	15.906675	3.6424994	18.207136	-27397.514	-198343.16	-259445.28	163270.4
H	1.0	21.203194	6.623533	21.158278	143565.34	-454277.5	-193909.98	1.0845912e6
H	1.0	20.88946	20.887821	2.107079	-67432.516	622453.06	-207358.72	-4.1897206e9
H	1.0	15.398925	16.599487	15.94305	-59436.09	-258527.47	20567.201	2.876626e9
H	1.0	8.381675	23.35024	1.7283859	-209560.44	351818.94	-49388.242	-636003.06
H	1.0	4.1035786	11.264493	12.975438	86093.39	-214102.34	-503575.06	-236245.66
H	1.0	0.29439613	17.998709	7.974805	13855.784	92178.39	60195.977	395913.97
H	1.0	19.924868	16.171398	18.859982	219999.77	-216598.4	-185221.8	183286.22
H	1.0	8.032404	6.8880024	16.823689	106749.516	-414647.72	-10798.178	3.1681376e8
H	1.0	18.884396	18.041115	12.866993	-465059.62	-231014.38	-174035.86	1.269421e6
H	1.0	24.003319	23.694504	22.30268	-218617.4	-294331.16	-62325.023	469497.0
H	1.0	4.649232	17.6075	2.8141465	-204579.56	-11016.641	495620.75	-1.9146644e6
H	1.0	2.9762526	16.156137	12.481825	242254.27	154647.64	309204.88	185944.86
H	1.0	14.182905	1.1377623	16.994265	391052.88	458452.66	-112051.766	-4.601003e9
H	1.0	16.946554	17.304121	17.40571	147651.77	-375294.22	442953.3	-940604.0
H	1.0	4.839301	8.91437	15.92887	271316.38	292007.9	-107305.234	231847.9
H	1.0	20.76905	16.440083	0.8786214	-10499.889	-227374.3	80925.24	-2.1058771e9
H	1.0	19.845798	12.943323	10.43075	34470.53	403599.3	130635.625	-516532.47
H	1.0	23.976633	20.67295	22.201471	-41308.24	286935.4	-271246.8	1.4011478e6
H	1.0	4.084794	15.138968	5.769832	-337085.62	-387258.72	-629264.0	-2.3320408e6
H	1.0	19.057024	14.345876	9.129637	295032.28	211127.14	45239.324	-1.8455727e9
H	1.0	22.933834	22.141813	12.507924	359198.8	-710590.2	363136.16	-2.1844216e9
H	1.0	17.817959	13.279131	14.717632	218014.7	75878.09	-130398.4	83059.43
H	1.0	4.2907014	21.074648	3.489876	-175718.62	-149429.98	-53180.89	-205473.23
H	1.0	2.4214635	9.915309	12.031615	11366.003	-257483.83	-299930.56	-317389.66
H	1.0	17.97258	3.1257682	18.223753	-75336.63	687778.7	31346.85	125578.49
H	1.0	9.311177	21.374352	20.436047	276897.78	532783.1	98551.69	-5.365458e9
H	1.0	18.742374	1.9224337	16.746662	155671.11	144808.23	134250.17	-89324.47
H	1.0	15.038562	10.715543	0.056339234	423479.53	610549.5	-315508.7	-545946.44
H	1.0	10.920579	7.3809743	12.828073	244593.19	270125.16	370390.1	-1.02205975e6
H	1.0	18.127611	15.512629	1.5256397	61864.87	52058.035	-269557.75	129345.24
H	1.0	5.1219664	21.797009	17.270811	-54114.34	291899.03	-41837.426	-1.496131e8
H	1.0	19.83906	11.092399	5.3025966	295622.38	-532915.4	-22504.486	-2.1292214e9
H	1.0	22.018707	6.459022	9.280271	571747.25	-14961.939	328000.7	-965909.6
H	1.0	9.022193	0.23827076	5.7727165	-370027.12	151475.52	120762.664	-2.0577193e9
H	1.0	14.165198	7.345185	0.40704712	186373.97	-277443.5	-238160.61	-201369.1
H	1.0	13.108057	14.165578	16.80708	-184801.48	-676771.25	108775.31	581707.5
H	1.0	0.50046325	17.49228	17.07471	-169288.75	-489217.34	228162.19	-1.6110248e6
H	1.0	19.891945	19.46023	17.863304	101162.32	312821.56	-72468.3	3.5071055e9
H	1.0	16.028534	8.145112	8.789584	-186503.75	-111735.8	-276032.53	1.2332086e6
H	1.0	8.785903	22.122461	4.824363	59927.824	130459.2	-569815.94	-8.122728e8
H	1.0	7.771967	18.681257	16.993404	-316929.44	282462.9	-77127.43	-372032.06
H	1.0	4.524508	13.863326	11.934766	-70256.24	351614.8	33911.234	-285366.6
H	1.0	21.94988	23.293015	13.7736845	7317.3335	-43635.875	162321.97	41069.266
H	1.0	5.409561	4.3623533	11.761517	221419.25	275761.75	-277589.78	-5.303728e9
H	1.0	21.25365	11.919834	14.084013	40791.688	-135933.67	-400855.2	1.3962657e9
H	1.0	10.844166	0.3255576	20.52522	168135.73	311756.88	-144782.47	2.2447142e9
H	1.0	15.630012	1.2310756	12.74014	-78904.93	424070.2	295672.2	344310.25
H	1.0	8.609197	4.303183	22.762234	-263429.16	344641.0	-17281.248	-5.3788934e8
H	1.0	16.193697	3.8686428	10.326216	480925.97	4497.5645	-41765.527	5.060813e9
H	1.0	12.656929	1.8108072	2.9144027	113398.23	401285.1	421446.47	-877448.7
H	1.0	6.8491325	14.550827	20.543152	-446052.28	-217705.14	-166497.89	-827108.4
H	1.0	11.337019	13.891051	19.321543	-86922.74	-234252.78	-678337.6	-2.0444154e9
H	1.0	6.1439743	5.875581	17.407028	215616.83	94495.305	-1103.5951	241902.28
H	1.0	8.328493	12.497456	17.04151	-507573.7	101055.2	527428.3	-5.980193e9
H	1.0	23.334618	12.109301	18.832087	-162231.47	-599333.2	-32124.363	-433612.34
H	1.0	16.613203	14.5294285	19.156551	97564.49	-168925.5	227807.52	3.6221494e9
H	1.0	16.682644	1.5970377	4.4080706	123268.05	-77043.34	-165261.48	1.343556e6
H	1.0	14.414999	19.71689	16.920227	-249200.05	-45972.51	-109579.414	-90020.63
H	1.0	12.911238	18.553883	12.978766	-270878.78	-231781.14	81839.65	-350707.8
H	1.0	16.084742	19.166542	12.882586	272077.3	611219.25	-391656.7	-5.535029e9
H	1.0	2.1011283	7.850045	2.2348475	41761.64	-14042.625	-289056.9	1.5319474e9
H	1.0	10.756524	11.131059	0.62698185	-522434.22	352659.6	-177736.47	-8.0928067e9
H	1.0	3.6990976	20.23568	19.977095	191482.53	198820.6	-286734.34	-1.1597411e6
H	1.0	17.498556	8.805749	14.370268	-498139.25	-230194.75	842.15686	7.708448e8
H	1.0	0.43983305	16.630035	20.56806	-202634.77	-63251.582	405043.1	-467563.3
H	1.0	1.8856764	12.0830765	10.711745	132233.92	-395824.88	144404.55	-5.078913e9
H	1.0	18.559568	6.7391987	7.676733	-102225.6	221004.23	19703.953	3.187593e9
H	1.0	21.407164	20.538204	19.563416	156646.66	-33214.3	-366209.6	-257997.27
H	1.0	7.176641	16.394348	4.430381	36103.84	-258650.11	274298.22	-98148.555
H	1.0	19.573025	16.790916	20.820967	217186.67	-232215.03	-19770.64	-1.014012e6
H	1.0	1.4831613	14.45591	3.6415126	204683.77	-253709.67	-255942.62	6.798655e9
H	1.0	16.733377	8.370531	6.7321606	118715.96	522856.38	62734.586	-1.8763556e9
H	1.0	0.33514768	12.444665	2.3685977	-154541.52	204029.17	-157083.58	4.1322056e9
H	1.0	1.2595521	11.268109	18.683998	-356867.4	321699.75	-216723.4	-179454.6
H	1.0	20.741465	1.6805834	8.415695	-38327.8	88835.43	-195166.12	92775.02
H	1.0	21.510883	2.6226928	18.005917	-10211.9795	27295.787	-45930.484	4.6065213e9
H	1.0	12.791807	13.087355	10.183391	-293775.12	-137682.48	-62017.555	-336790.44
H	1.0	5.651302	9.459263	20.497852	278645.1	-121507.05	-70262.37	3.4447964e9
H	1.0	13.581332	4.519761	21.418514	-117815.91	-723343.56	-347425.72	1.3765189e10
H	1.0	8.388398	16.467243	1.3714154	87743.266	-753993.2	41998.418	-858229.94
H	1.0	12.140306	22.34759	20.527353	203950.55	348948.22	38369.598	-4.3194266e9
H	1.0	15.359012	13.688385	4.3716674	69280.945	-31377.656	-328979.88	229357.31
H	1.0	5.4503345	15.617504	22.161808	-640378.2	64809.188	231360.03	-5.875818e9
H	1.0	12.074773	8.694615	4.8029847	-254536.11	209893.16	28308.09	-2.3890724e9
H	1.0	21.522131	5.379303	15.312889	-142014.06	380440.16	34886.645	541307.06
H	1.0	1.2567586	6.2155337	13.893873	-80083.69	183381.39	7413.8223	-4.336767e9
H	1.0	7.209039	18.569859	5.66653	-379179.8	84237.34	-109948.51	-3.556557e9
H	1.0	11.527242	4.3240886	20.3494	-142962.69	-355368.25	194964.66	-1.7299345e9
H	1.0	20.637125	16.883396	11.594523	201732.86	-131788.75	111725.414	481078.53
H	1.0	6.4747763	11.34546	0.7966969	64556.516	-122772.41	187449.75	1.1477156e9
H	1.0	15.116327	23.409817	5.7415133	154263.02	7499.712	-390714.97	7.222585e8
H	1.0	6.3108163	10.630096	10.030344	45359.582	-137830.83	84075.016	569264.9
H	1.0	19.54246	23.03817	13.97137	-60129.7	165691.4	129337.78	7.265756e8
H	1.0	14.410717	5.825433	20.05825	-167823.55	431849.7	142065.3	-3.1256676e9
H	1.0	5.99592	22.657991	23.414827	-118102.0	-554722.25	269896.62	-1.01179175e6
H	1.0	8.179019	23.439583	13.969011	-46940.297	-106054.54	-103111.77	314057.9
H	1.0	3.6847389	11.658249	20.264141	-175897.06	-44044.535	-400115.34	-879012.06
H	1.0	13.198331	9.156548	6.3928185	315256.25	-380086.16	-37880.082	1.2643571e9
H	1.0	14.9632435	9.2133465	19.922256	-113502.07	30137.5	307488.6	497481.97
H	1.0	23.556133	14.913554	5.0543075	-210864.25	645549.6	210885.52	-1.2024935e6
H	1.0	0.06518268	4.7192044	17.4995	258351.61	-25282.969	-309070.78	-416901.84
H	1.0	12.103949	13.538637	21.983047	16532.275	660062.6	51428.15	-750059.75
H	1.0	23.401852	21.483044	5.704203	-46808.195	285866.88	-224459.19	2.891286e9
H	1.0	1.2338157	2.6462514	4.4443564	-390439.78	349554.2	195518.33	4.4278576e8
H	1.0	23.531939	6.9254723	17.335371	-448775.12	403772.84	275402.28	-83727.71
H	1.0	4.3326297	9.427708	6.735726	272982.5	76286.34	92389.23	644370.75
H	1.0	13.90886	20.58643	19.735197	-447558.6	-22716.713	138077.08	232203.64
H	1.0	16.367435	11.201918	20.62232	220636.55	-90011.28	-98771.62	-446380.7
H	1.0	4.040401	13.749219	19.978024	-224053.19	-86758.63	186716.77	6.8255904e8
H	1.0	21.705647	21.037119	4.1210136	159030.52	-498700.03	139078.34	-1.6470606e9
H	1.0	2.3113728	4.7986884	11.359432	-22135.156	-24792.36	-183967.75	593880.6
H	1.0	22.668192	14.810544	3.1196947	362825.47	-227082.34	261610.12	-5.1068984e9
H	1.0	14.168936	11.273519	9.1122	61515.016	141317.77	483008.0	-516016.75
H	1.0	8.046017	0.39577007	3.8903706	153119.44	176599.22	-361224.75	-391052.78
H	1.0	20.870071	22.163095	10.300041	-12032.53	322046.75	-77227.75	-3.7238807e9
H	1.0	20.047747	10.676932	16.794918	-341060.22	193487.33	161307.3	79906.32
H	1.0	22.61709	15.91238	9.710264	-4643.5713	124793.15	-401751.1	312950.9
H	1.0	4.7623086	3.5713143	13.64991	43816.63	-89154.45	-235864.42	2.4417318e9
H	1.0	13.315635	23.765226	13.392193	-113774.984	117742.21	107749.29	358803.9
H	1.0	12.400647	15.847517	0.7124442	-439430.62	419895.84	171249.48	-413857.25
H	1.0	9.156397	18.386486	2.0922437	292362.5	378838.97	-141785.16	-1.7991325e9
H	1.0	0.9917384	14.724059	8.018171	232308.98	-315581.4	50664.426	5.3063037e8
H	1.0	12.780923	23.23164	0.9745286	255586.31	287148.1	89216.6	1.0490996e6
H	1.0	12.665736	11.763207	0.64626455	305613.16	280403.22	-409487.97	1.5648951e6
H	1.0	17.484858	10.510002	5.133692	37868.76	-173207.6	-256959.42	-4.79583e9
H	1.0	1.008336	23.32934	1.4039462	265768.78	-174763.22	-121361.016	491699.72
H	1.0	14.261805	5.1150894	11.22789	-195738.92	436203.25	37749.457	143541.89
H	1.0	18.420185	4.890159	2.692603	269966.56	1369.2258	20708.443	762562.1
H	1.0	16.156364	2.4768755	2.5471869	-44133.83	158659.86	-126088.28	-103904.48
H	1.0	17.182272	11.506284	3.3506415	380670.3	278140.28	363837.12	-2.330297e9
H	1.0	23.08611	11.852887	21.77515	105010.81	68519.305	105185.805	4.6855252e7
H	1.0	18.128876	23.403913	3.4956772	191846.67	141798.95	-265346.56	619569.1
H	1.0	6.8193817	14.534977	11.032572	670603.94	-786836.3	44567.473	-1.5929654e10
H	1.0	19.43978	3.8160484	19.870113	162744.98	-345121.6	399123.88	-546024.56
H	1.0	16.048042	18.393322	8.061844	173787.5	46308.082	23607.709	-869904.0
H	1.0	14.334842	19.495775	0.62854683	279556.28	-228032.34	-228705.98	9.669243e9
H	1.0	16.467102	22.914877	21.397861	409407.25	71609.55	-360325.72	-669341.1
H	1.0	8.270689	8.920211	23.161331	141207.7	-563895.1	-250379.78	-3.8400353e9
H	1.0	22.835787	9.592496	8.206445	303265.8	-282758.38	78040.69	2.1662582e9
H	1.0	23.934418	3.999912	4.0864596	556722.5	207697.78	93831.86	-572333.4
H	1.0	21.198498	13.651307	21.358223	30927.424	-79294.28	-56250.63	6.433691e9
H	1.0	13.506036	2.2155857	4.719772	-175932.98	62830.48	115265.5	1.0973765e9
H	1.0	17.679012	19.783392	11.048142	33858.93	-81788.15	-535500.7	-1.1315805e6
H	1.0	15.717433	20.385832	23.000038	-248361.45	-89769.21	65299.01	4.4030095e9
H	1.0	5.1500525	12.084873	14.559436	-302.83316	316271.56	146396.7	4.4205107e9
H	1.0	10.813007	3.371711	13.592875	333131.3	-200599.84	-470086.84	-2.1090362e6
H	1.0	8.746338	11.183776	14.387117	557105.3	614277.7	-132345.66	-994831.1
H	1.0	12.929123	10.938469	12.064953	-19780.172	-21298.717	-178971.08	917633.25
H	1.0	9.145459	13.759366	10.362879	-74789.92	-522619.06	385950.75	-6.8011653e9
H	1.0	1.589699	17.549374	0.6098298	-162565.2	387691.84	-121486.31	167700.02
H	1.0	19.86538	22.943666	22.006943	-155469.5	146771.58	-15387.736	493143.25
H	1.0	5.580178	12.360119	19.137207	181420.19	-392901.72	-100641.05	1.6781018e6
H	1.0	20.613264	9.441126	13.246224	-35565.96	29495.268	-17311.232	3.9816438e9
H	1.0	12.746476	9.325058	23.565365	81459.92	67475.2	-172013.14	8.8246464e8
H	1.0	0.6262493	3.5715005	22.207235	-117638.27	-339919.72	260989.67	15244.644
H	1.0	23.992224	2.3101156	2.7711337	139521.72	79976.2	-207225.0	3.2826854e9
H	1.0	15.54794	14.169469	17.409004	324167.0	156237.1	272175.94	-1.969638e8
H	1.0	21.400558	1.5699077	12.883439	-208400.39	577523.9	26427.62	-853020.44
H	1.0	17.458883	14.401175	7.514957	434180.2	240506.0	-549204.75	-2.986226e9
H	1.0	10.717979	11.446585	16.113644	150106.25	36656.13	200333.17	303564.38
H	1.0	16.670773	20.59268	2.8770328	-436854.4	-156970.48	-297249.22	-5.186417e9
H	1.0	11.384069	0.24680012	9.119135	104418.86	195181.22	8297.426	-4.3805043e8
H	1.0	3.1632357	6.461369	8.210426	-130061.67	-654714.7	212281.4	-2.0915905e6
H	1.0	12.741579	13.662175	1.261056	149753.67	-189836.3	354667.22	-1.551023e6
H	1.0	0.43602353	5.066722	5.889818	532310.5	-483911.75	209381.16	-1.4486351e6
H	1.0	0.38126513	7.7672143	19.258448	46259.11	-131685.72	-30079.14	-617318.6
H	1.0	8.105791	22.071138	8.835152	-150805.08	482169.75	-627508.75	-684648.2
H	1.0	11.563669	8.9608555	21.584066	-413634.75	212259.56	-70769.63	228137.95
H	1.0	22.475025	9.688478	10.586253	-249475.06	-391482.47	-302355.4	-353287.94
H	1.0	6.1176376	2.3032908	12.355483	-93032.234	-38283.19	132224.31	8.647011e9
H	1.0	17.625044	2.4593525	23.152767	-7047.3716	446667.6	-154775.44	188152.25
H	1.0	10.351135	22.790417	7.6441264	-135764.38	-534100.0	170712.38	-1.0771858e6
H	1.0	2.517016	12.926193	2.2805672	-327269.47	-634135.25	-155384.81	-2.529812e6
H	1.0	0.36988613	3.8402472	1.0605674	97969.96	179558.53	-97808.516	36415.137
H	1.0	21.326292	23.90057	11.514346	20373.715	-67100.57	-200383.02	5.047087e9
H	1.0	13.410107	3.0430999	23.033598	-164725.97	-146156.95	-293537.66	-2.4030518e9
H	1.0	23.136969	3.044906	7.736548	-169807.95	-234130.6	335723.94	235681.31
H	1.0	22.719652	15.2919235	6.8420563	-804109.6	2884.863	591506.3	-8.3297725e9
H	1.0	2.2647722	4.0966268	23.912401	133529.97	64617.46	96291.45	2.4887997e9
H	1.0	19.376347	16.04147	4.465342	152485.88	158184.38	-560188.75	4.407113e9
H	1.0	22.02247	0.42635503	23.51147	55943.98	221825.53	-77854.4	-37564.68
H	1.0	23.065817	12.845495	9.875735	33285.16	342567.6	459829.88	-535224.0
H	1.0	5.72126	18.712683	10.088281	-202959.73	-483727.56	354439.94	-2.0788015e6
H	1.0	18.687374	20.309322	23.884825	132190.4	225272.05	50095.88	2.7087494e8
H	1.0	8.607193	19.583342	18.50252	188073.92	-68489.79	158809.69	-126789.8
H	1.0	18.686287	15.466704	11.6073265	-282585.66	-20931.713	-284109.28	-441841.56
H	1.0	20.920082	23.488647	8.338127	-39094.242	-287669.3	40913.84	1.0075527e6
H	1.0	0.9037785	17.703386	11.531532	-157436.08	-32837.016	-20737.668	337749.44
H	1.0	15.658905	2.8427715	8.515711	549245.4	291490.06	248669.48	-1.1768334e9
H	1.0	18.494848	2.5221138	1.4815053	32752.191	251472.58	-102969.94	3.070696e9
H	1.0	4.7223206	10.576973	4.3098755	-343994.3	6914.3906	-25547.355	-3.3048005e9
H	1.0	8.306049	7.1145167	14.124453	64639.14	-83513.336	20529.422	529002.6
H	1.0	0.3403917	19.527971	16.961376	-182753.38	26982.588	757321.1	-2.2719506e9
H	1.0	1.4905018	2.191799	16.655405	186329.98	-69276.79	239504.95	3.3967675e9
H	1.0	18.168142	0.3691255	21.730244	-99100.68	-465934.06	137452.52	2.597581e9
H	1.0	14.163046	11.761499	16.862366	-381152.2	-426446.75	304030.75	-1.174672e6
H	1.0	19.371376	1.5151107	18.595116	154066.88	-464020.38	-201589.69	-6.254722e8
H	1.0	12.540248	18.16075	19.507198	275078.66	-360497.72	68718.625	-709289.8
H	1.0	19.7429	10.464996	19.80292	-276062.6	-106510.19	-100989.14	1.2246958e9
H	1.0	22.74661	6.435617	0.1193462	514887.8	114022.07	-132096.17	-9.390869e8
H	1.0	16.426125	21.334206	14.946521	22281.69	-69134.625	285539.25	-416918.72
H	1.0	9.549524	17.655867	12.780815	656210.75	31490.248	83965.73	126676.27
H	1.0	1.2482325	0.23170307	20.69211	-445793.78	-42577.21	383545.03	-218348.31
H	1.0	10.55373	1.5889752	10.893587	-198912.86	221887.72	388360.97	414192.34
H	1.0	19.571695	1.9277356	21.141018	337968.84	-44176.043	-324811.2	3.1091295e9
H	1.0	15.109039	10.675634	6.334607	-449757.06	486941.28	436487.9	-1.1336115e6
H	1.0	11.976835	20.137245	20.343378	197874.45	-179093.8	-470758.4	4.974497e8
H	1.0	4.556444	9.480883	11.463594	-205899.06	-207383.31	-95786.52	1.6078288e8
H	1.0	9.944582	17.64495	8.391028	-190499.5	15691.333	304383.75	6.572149e8
H	1.0	12.600376	3.0191967	7.715072	-265630.28	352114.62	204248.02	-426738.34
H	1.0	13.891855	10.84103	2.6762345	306769.25	64964.832	72484.766	846733.9
H	1.0	6.2676253	21.389332	7.5779595	-104504.23	-496604.97	455905.66	-1.1764724e6
H	1.0	10.620221	8.424557	6.588677	322772.25	174216.34	167200.62	-1.241723e9
H	1.0	7.8098464	17.867619	23.969494	-233048.81	83584.65	-203617.83	259967.0
H	1.0	15.180005	23.83312	19.2564	116926.87	-144313.1	216771.1	-9.429728e8
H	1.0	7.49993	15.179871	14.413123	-356938.22	19504.748	304791.94	-1.859814e9
H	1.0	18.259352	13.320683	21.93183	-255899.61	-93759.8	-654756.94	-2.5148582e9
H	1.0	7.58043	5.8532276	0.2595515	-625195.56	-17590.79	207016.42	-773732.06
H	1.0	4.9516463	12.127567	8.956876	58546.45	50837.34	-106185.03	1.0564447e9
H	1.0	2.906592	5.910465	23.069458	242483.97	-924048.0	139098.92	-873135.6
H	1.0	7.632223	1.8579888	13.906355	-139798.08	-74686.77	92748.06	323267.3
H	1.0	19.801949	22.320204	16.804668	-262033.42	-76187.88	182909.05	9.0043635e8
H	1.0	21.32879	12.7147665	19.651293	413218.1	337647.44	129128.55	69673.28
H	1.0	11.988415	3.5690744	3.094061	180798.23	-733721.1	118380.21	-9.199966e9
H	1.0	2.6969883	6.139986	5.3421826	272057.28	271776.5	-31339.717	-1.9284902e8
H	1.0	8.130459	3.3439877	16.677513	42800.24	-59528.492	49109.44	-1.7921402e9
H	1.0	5.151981	1.8834586	15.146823	380948.22	-15380.312	234237.39	-636316.94
H	1.0	19.797567	5.949908	4.0144715	-420390.97	-91791.59	-8212.21	4.2491057e9
H	1.0	13.618449	8.4566965	11.224947	-89098.11	148972.44	167299.67	80791.38
H	1.0	16.97937	3.7149146	16.331182	-78435.94	214479.86	538045.06	-274085.88
H	1.0	13.861373	16.363749	18.988585	-7716.284	215883.25	424892.3	122645.414
H	1.0	16.052916	16.363811	7.91752	146671.73	32686.65	118017.04	645439.9
H	1.0	10.776647	10.405197	19.13077	-328837.44	490803.84	322857.78	-1.0905484e6
H	1.0	5.070768	19.970505	1.8197545	366333.75	229843.2	-1664.4677	-66959.67
H	1.0	8.617699	16.792402	18.20032	-64355.195	62108.125	-156228.5	108364.73
H	1.0	6.1640725	0.8369649	4.469928	33626.82	508131.4	-84073.14	-1.1711159e9
H	1.0	13.51615	1.8051641	21.055515	-506344.84	225463.6	-31901.09	-334602.84
H	1.0	3.7899978	19.48097	16.090788	-15313.931	177483.14	233204.55	4.3594854e9
H	1.0	20.63074	5.4241996	11.861627	309402.8	-296732.4	-82303.93	3.7185776e8
H	1.0	24.060776	6.087058	8.426898	107953.75	67153.85	-163755.4	4.5127977e9
H	1.0	6.576249	8.731421	3.2219799	2150.142	212628.52	-268685.72	-5.8341843e8
H	1.0	19.687162	7.9338384	18.107344	-507207.25	30664.92	133579.14	-672340.25
H	1.0	0.5760108	0.61605144	5.7781672	-205374.34	253756.75	-176764.28	-1.5130079e9
H	1.0	2.7848873	12.901195	7.1092978	-293338.4	99219.984	-202835.72	308346.34
H	1.0	20.176643	12.147789	0.9502536	-148420.56	-203347.14	306499.56	5.8372864e8
H	1.0	5.793186	20.635654	10.537508	-143740.44	148662.17	466740.84	3.2159437e9
H	1.0	11.3314495	16.081882	18.99397	-6214.3955	-308486.6	443549.47	-651925.3
H	1.0	12.214314	14.89007	8.833269	137489.52	189728.61	567045.94	-1.5146339e6
H	1.0	22.517422	19.1019	2.6116323	56687.227	-55438.723	-207823.1	-7.9167775e9
H	1.0	16.238386	5.6156282	7.8377967	-159323.98	181480.25	111730.35	2.111407e9
H	1.0	16.186138	23.774633	11.354152	-12319.075	310501.53	-283840.28	2.6592207e9
H	1.0	22.860771	3.40201	15.868602	329498.34	-46724.137	125432.89	1.6344389e8
H	1.0	9.570634	0.41122073	7.964835	209954.08	-18072.703	-521855.75	-1.1680244e9
H	1.0	8.1040535	11.8880415	2.352995	-56674.074	-835150.2	-383136.9	-6.115909e9
H	1.0	10.886611	0.9431779	0.74887806	130993.86	-95868.16	360022.97	535345.9
H	1.0	14.31099	23.354704	2.8579006	500841.16	222259.56	229596.9	136612.97
H	1.0	1.3648897	14.214185	23.643888	-309982.34	125171.125	358416.2	-2.3744786e9
H	1.0	10.803148	11.663751	20.787066	312590.6	156994.64	174781.02	-742667.0
H	1.0	10.609514	14.483647	0.074559644	477535.3	-426821.3	-23703.936	-981922.1
H	1.0	18.252312	21.51919	6.585409	337425.84	203384.66	165878.8	-43207.82
H	1.0	21.429996	17.419456	20.572277	93542.01	380587.0	-512396.8	-849898.4
H	1.0	11.221612	3.6812506	1.1643078	-617879.2	190055.55	-280837.75	-792321.1
H	1.0	22.956402	13.733705	12.369419	-51191.793	268511.97	-1503.263	6.3322086e9
H	1.0	6.967811	16.85705	11.115042	-411396.4	117783.77	-167510.89	30039.332
H	1.0	5.368432	20.453999	5.9589024	-301689.03	202763.36	-219739.38	2.8099962e6
H	1.0	17.289272	11.38051	14.949879	-57722.688	-584456.7	324242.44	-5.4025784e9
H	1.0	12.762609	16.68534	17.160587	197739.39	-20462.488	366070.3	756409.6
H	1.0	11.310342	16.508059	9.962638	-260230.33	201300.1	52721.598	-53697.02
H	1.0	22.093636	1.5389602	9.923298	-379111.22	141618.0	-261711.39	3.4100882e9
H	1.0	12.217635	15.870872	13.950053	-86998.38	-118150.04	430466.9	-3.8164685e8
H	1.0	12.7713375	7.125767	19.105783	385587.66	210389.3	209311.56	-2.2776286e8
H	1.0	7.14681	1.829962	6.5897813	-70587.09	-48208.273	89996.52	-1.8300269e6
H	1.0	16.205353	20.897104	10.475956	-166493.86	203045.98	45535.117	3.422363e9
H	1.0	4.153412	17.044582	24.029833	429558.72	396135.66	-157812.05	-2.1139828e9
H	1.0	20.778526	7.505411	4.662696	-213759.8	-150128.77	-169288.4	118410.53
H	1.0	19.380821	1.714613	11.347825	46524.4	-49404.055	-149232.33	143506.7
H	1.0	3.782407	4.723421	6.5915346	589667.8	-122885.62	-29396.6	-6.811339e9
H	1.0	15.563434	16.672808	13.429244	322325.9	-114966.484	309720.06	-2748.3958
H	1.0	9.286801	2.2823186	24.072416	106339.234	514034.8	177077.19	-2.8355482e9
H	1.0	19.257923	20.94752	19.371141	-441839.5	-149348.97	517512.72	-1.5283324e6
H	1.0	14.600241	10.586725	22.104012	-157965.2	688571.0	304736.22	-1.300362e6
H	1.0	17.242887	11.155296	11.590113	35830.496	258680.75	-523704.88	-5.2372997e9
H	1.0	0.37039053	5.286534	10.885572	218500.66	172620.14	312652.2	-405240.72
H	1.0	11.796917	5.4548855	18.715097	289293.44	271130.1	-513197.75	609685.44
H	1.0	13.394723	21.75457	23.769352	189943.55	-430679.03	19444.04	1.1410624e9
H	1.0	0.1233152	8.129009	15.464144	1893.0419	-114183.47	-107337.586	1.369112e9
H	1.0	24.033073	19.620884	5.288583	-231853.7	116009.35	105397.74	2.2829327e9
H	1.0	7.252786	13.788941	12.973102	-86549.36	10728.207	-170138.31	3.4136689e9
H	1.0	6.232742	16.670998	18.78243	197251.17	645525.44	-252433.64	-4.1474747e9
H	1.0	23.881704	10.101614	5.652183	195628.42	122966.81	-246854.97	3.1891274e9
H	1.0	16.174328	17.613615	3.919052	-354903.6	149863.22	-387807.9	3.2863022e9
H	1.0	17.089258	17.446821	10.837522	164573.83	-494747.06	-119394.016	-2.0591268e9
H	1.0	22.13335	0.12503071	4.624286	-42024.305	-42655.242	-125242.26	8.209667e9
H	1.0	9.303888	14.890325	18.821585	-308938.12	225565.34	181327.98	-419316.38
H	1.0	8.175877	3.7971845	1.1239393	-407346.7	512232.97	44593.926	-5.124027e9
H	1.0	3.5631106	23.002127	24.004004	-369733.94	249038.14	-55780.754	60087.137
H	1.0	14.888684	22.140615	16.080015	-247866.05	432737.38	15410.841	-5.047041e9
H	1.0	10.1666565	10.716204	8.483187	-276496.3	219878.73	-137919.05	566828.0
H	1.0	9.728109	8.812559	17.65562	477139.3	-85074.336	-35826.266	-252230.94
H	1.0	23.397066	21.469612	19.233511	-60866.098	-100294.41	-30224.918	9.5328864e8
H	1.0	21.90174	2.601686	3.778966	785913.8	248572.62	-288276.16	-4.711925e9
H	1.0	0.24540915	7.297381	2.7651367	37789.75	145482.23	-236959.16	3.958528e9
H	1.0	14.266829	11.120363	14.383817	133434.2	465046.8	-409407.22	-4.150243e9
H	1.0	5.4531255	3.837771	2.6104975	328976.72	-227506.28	-374606.22	1.5991334e9
H	1.0	8.478052	23.897318	9.658002	13842.409	-203772.77	-105973.08	587820.94
H	1.0	7.8993354	8.087679	20.618998	494405.9	375977.8	-204857.67	-3.805044e9
H	1.0	16.209589	0.47606483	2.8155296	-218826.47	-46038.76	-4966.4814	-684794.9
H	1.0	22.781939	7.533168	11.644166	907072.06	-372832.78	147316.23	-1.0203633e9
H	1.0	7.5799446	18.91277	11.24422	168196.89	330018.78	-185605.14	-9.882645e8
H	1.0	22.938745	23.417353	18.433138	449950.56	-554318.9	-198510.5	-6.334691e9
H	1.0	16.6915	15.055684	12.127908	54765.297	-137174.0	568164.06	-8.740991e9
H	1.0	6.4280114	7.0636845	9.941265	337474.5	337942.5	713018.4	-8.71364e9
H	1.0	23.273188	12.468295	16.601114	-275167.8	260640.92	-307934.9	-2.757412e8
H	1.0	2.4958806	6.9123673	18.287626	-200873.44	266732.88	372729.97	-1.1586607e9
H	1.0	15.96652	15.50655	22.541986	-357137.62	78819.14	244634.05	379953.7
H	1.0	3.9262028	16.113932	18.06887	-89729.57	271632.3	-197077.69	-145819.88
H	1.0	10.456159	6.400934	5.347838	-254153.66	-15050.362	-81529.49	32720.943
H	1.0	4.8692546	22.321386	2.1714094	40708.67	35606.004	110303.22	-3.3645066e9
H	1.0	14.017162	20.169952	13.650604	236523.48	183753.3	-478292.38	-72208.62
H	1.0	15.275644	5.4743915	0.98306036	-82593.44	48808.98	158713.06	3.9491415e9
H	1.0	15.378687	1.8598659	6.4335513	117909.59	216573.97	-197548.89	4.2958778e8
H	1.0	15.779677	0.5672637	9.66051	786185.25	-154044.33	434224.66	-2.0315191e6
H	1.0	16.58716	7.872662	21.9813	416551.12	-147134.1	-108316.26	-4.318599e9
H	1.0	22.748499	23.357199	6.3387437	-281547.7	-194047.28	235993.98	-342283.5
H	1.0	12.30501	5.518137	9.089461	-392469.0	-256479.44	117328.51	-171236.8
H	1.0	12.15666	6.173381	21.390442	-516037.4	-256581.25	-88791.9	-364022.53
H	1.0	19.757347	9.49384	23.207037	-340462.0	182472.62	780789.5	-1.729628e6
H	1.0	10.510994	18.181475	21.366331	156188.77	166108.53	117862.09	5.8771825e9
H	1.0	19.703617	19.160007	1.1871248	948.8583	128731.195	682734.06	-533445.56
H	1.0	19.461231	13.703921	19.447655	-668944.5	171495.02	-392532.22	-582544.94
H	1.0	15.254931	8.461597	16.509716	197644.48	-215052.89	588464.2	16020.0625
H	1.0	16.350716	5.1894803	13.414865	-85425.27	-550417.1	-234058.58	-2.2160003e9
H	1.0	12.463211	21.975348	14.621073	-683950.4	-207049.77	91644.51	-1.1022008e6
H	1.0	17.62023	8.355157	4.168976	15891.323	529270.1	-5923.774	-1.0567586e6
H	1.0	18.92662	21.909718	2.35584	32371.488	10332.203	-576323.2	-2.5920655e9
H	1.0	0.6610681	16.212433	6.1565933	98568.68	-181044.78	-27250.438	123815.02
H	1.0	12.008855	9.753795	8.896519	147610.58	201248.27	-424968.47	17635.115
H	1.0	13.103711	7.110411	3.703386	-87163.125	-240320.61	18801.748	200921.66
H	1.0	7.9450727	11.798971	21.304485	-15668.594	-400099.25	542774.6	-5.8669885e9
H	1.0	6.0768185	15.938639	16.826668	413377.88	-100735.64	-52314.094	2.7967296e9
H	1.0	9.840462	17.999376	23.688374	137517.55	-463862.66	-2242.848	-8.703982e9
H	1.0	22.706646	10.365906	15.791525	-383308.53	366225.47	-399418.66	-499903.75
H	1.0	6.7401214	0.40321368	7.7525396	-109693.75	-346706.28	-320970.62	737419.5
H	1.0	20.156372	24.067616	3.6326964	-400424.9	-163504.6	-93570.52	1.843729e9
H	1.0	19.54741	18.623882	21.93652	-376332.75	-168677.64	17055.77	-8329.524
H	1.0	8.648959	1.8655673	1.9801581	-298733.72	511098.78	-634027.1	-1.6262572e6
H	1.0	13.742648	3.0508077	16.595236	-36639.297	373028.78	-360380.3	-2.4656573e9
H	1.0	4.927786	10.100365	14.398301	-274773.2	-125262.234	154625.08	660916.9
H	1.0	8.5870285	13.844253	0.8758615	-418002.47	-111731.1	304350.94	-3.0579855e9
H	1.0	9.813985	7.649337	3.15528	-44993.87	-389800.47	21324.312	-1.6868298e9
H	1.0	18.178816	4.6358366	0.24969876	-524203.84	-246227.28	19330.984	-6.3313925e9
H	1.0	11.613526	21.405306	2.0853624	-230324.95	-421808.9	-75868.22	-8.1155246e9
H	1.0	11.588114	14.314607	15.459033	-277007.28	-6732.0103	-461848.56	-2.8940808e9
H	1.0	7.480127	4.4559216	18.447754	-208281.45	-283551.28	136505.75	-1.2393723e9
H	1.0	6.8003564	9.500902	15.426014	365929.38	437068.88	481654.22	-3.68213e9
H	1.0	16.184124	13.335286	20.89208	295421.44	86621.734	-544102.56	-4.0724795e9
H	1.0	13.338458	5.5902243	1.875422	101114.47	-264339.5	-151289.95	-1.7488109e9
H	1.0	10.835776	22.355959	23.607347	593906.9	37036.227	275842.56	-5.8203423e9
H	1.0	14.562497	13.807388	24.058449	-270746.8	-641391.0	68398.63	-16078.757
H	1.0	5.609421	19.606544	3.9929712	-362399.22	-251616.84	172457.83	-199377.38
H	1.0	8.925787	5.3663583	2.7700036	-292300.84	-255882.11	183043.53	-2.7300093e9
H	1.0	23.621384	21.200207	14.825394	175522.73	-9191.151	-27012.102	1.9297162e8
H	1.0	1.4502422	16.239172	2.239417	-484408.66	-240451.22	6757.502	-302312.0
H	1.0	19.617298	11.746688	7.1855245	-335521.0	280171.84	-551159.7	-6.4142403e9
H	1.0	14.598346	16.40797	0.12928073	323941.22	-23007.996	41325.426	312204.25
H	1.0	9.27503	14.077418	4.2581205	683469.6	-353913.6	262268.38	441257.84
H	1.0	2.777967	18.152231	21.820797	66864.46	-61318.12	457569.97	1.391784e9
H	1.0	19.382496	6.721841	12.6824665	318300.72	15065.192	53772.098	-1.6025458e9
H	1.0	11.475544	17.19927	5.355141	70348.586	-383913.62	203019.61	-47831.85
H	1.0	19.982105	23.732464	6.478579	-49764.64	12454.308	-481636.2	792314.5
H	1.0	8.333932	16.219263	20.502169	-368423.8	272207.1	161675.0	1.787747e9
H	1.0	16.337215	6.6671505	23.548662	-224411.77	-207294.19	193885.6	489829.53
H	1.0	9.080606	11.343581	5.5414257	536691.2	-167965.78	-196339.25	-4.1176264e9
H	1.0	6.3994803	2.7540784	17.412828	474045.12	-45763.926	8901.373	5.830597e9
H	1.0	4.1961904	6.862419	6.502354	-281367.88	215405.06	243882.23	911937.0
H	1.0	15.35916	7.0955315	14.956107	149404.5	232421.83	167633.67	-1.8541384e9
H	1.0	0.9817864	14.576153	12.001359	-506224.88	-94288.83	-452320.94	-1.0685341e6
H	1.0	21.134556	11.024413	23.263405	45676.168	586248.0	622030.94	-1.948076e6
H	1.0	14.365589	1.1324131	11.058029	259834.34	306274.47	465205.78	-6.567029e8
H	1.0	4.3636518	19.268335	8.080583	313389.94	132713.48	149707.61	1.2301114e6
H	1.0	9.452347	15.921622	9.338786	815986.0	-121237.27	7964.214	-1.0767445e10
H	1.0	2.1858428	20.822287	23.64968	-184695.52	131325.34	454356.38	-276914.6
H	1.0	8.298168	9.93833	3.6930277	-266375.56	-358560.1	-606312.3	237352.25
H	1.0	22.422379	15.02618	23.65718	201551.19	-191352.16	275077.38	-1.6276916e9
H	1.0	18.632824	1.0957491	4.1959977	-10635.049	-335961.62	401099.72	-9.783556e9
H	1.0	12.241071	8.888526	1.3280088	-510132.78	452891.53	130330.875	-1.3049688e6
H	1.0	2.9739926	2.52588	9.741311	-521030.44	-194151.12	-126798.3	1.7524141e9
H	1.0	3.2527647	18.112772	11.180323	-493712.03	56424.992	-300794.34	1.085431e9
H	1.0	8.960079	19.586123	6.9303727	242487.7	137071.33	-229242.64	1.6567547e8
H	1.0	18.875885	12.974231	12.268746	96501.23	471894.34	74463.016	1.0851263e10
H	1.0	18.373104	17.665764	5.089263	-390645.16	-226129.69	260608.19	941494.7
H	1.0	7.215185	20.75789	13.358572	23250.756	-14766.797	-32334.371	551558.7
H	1.0	3.7469428	8.194991	21.306118	-80330.195	121935.52	-93775.2	4.46683e9
H	1.0	10.11817	5.0738993	8.572792	-247482.45	-267624.84	-38013.137	3.3205778e9
H	1.0	20.43406	9.252725	3.7738678	-43669.992	467972.4	601898.06	-4.1167447e9
H	1.0	3.452673	14.378062	13.95119	157337.67	111553.48	-38254.008	-1.0325893e9
H	1.0	21.17322	1.2861601	6.421103	112823.125	-52283.83	-275696.0	-291103.94
H	1.0	6.1339517	5.599258	21.800364	110036.8	61293.71	389690.6	-162313.83
H	1.0	19.589773	3.8057442	13.011158	-178012.7	391957.22	-454142.1	-2.8878136e9
H	1.0	0.24599005	10.81985	13.996227	104723.99	-275675.94	-151240.11	63833.344
H	1.0	21.1367	11.307475	3.80146	-296271.72	60798.777	115052.97	364273.34
H	1.0	10.102986	0.6402403	14.284517	624531.75	-122002.3	-191772.17	-1.6753856e9
H	1.0	13.087022	22.143593	18.731968	115928.15	-209793.36	-73479.17	1.7711387e9
H	1.0	6.56909	10.864618	6.0908537	-59938.4	121441.01	-177110.69	1.4409208e8
H	1.0	2.2455196	10.18672	6.976571	-223231.5	-174713.27	-339739.16	-764844.94
H	1.0	5.4357767	23.025211	14.667608	-211464.89	-11204.909	165331.62	-454287.97
H	1.0	1.595076	3.6420858	18.968096	39531.324	354234.7	-397071.62	-2.7576268e6
H	1.0	4.5695767	5.117949	3.84917	-113445.83	-248447.05	-313907.66	-3.9321526e9
H	1.0	3.4608624	19.412125	0.27698585	146013.8	-458063.34	-86577.945	-4.1872018e9
H	1.0	7.5450363	13.0225	7.9734774	163126.34	-146247.84	-246094.42	3.6949038e6
H	1.0	16.689108	15.006877	15.073601	-222110.62	-43269.03	128153.93	-3.9160387e8
H	1.0	20.482475	4.9797044	8.195541	128794.84	-789674.7	360385.5	521211.28
H	1.0	23.005085	17.743912	23.748674	176528.2	-488512.9	-253304.42	-819076.9
H	1.0	23.120546	8.179546	22.150692	-522298.5	-81226.37	-209467.27	-421837.16
H	1.0	10.099909	6.1019297	17.266867	-157728.53	-733654.8	612256.2	-1.1365753e10
H	1.0	5.0259533	12.735927	2.697133	175198.62	-26831.912	435641.44	-488759.72
H	1.0	22.965546	17.355812	6.0637803	-262425.88	-37538.25	373474.5	-410726.16
H	1.0	18.522253	16.32423	6.882157	-348267.8	141116.1	224006.97	-154570.16
H	1.0	20.684155	8.612645	0.7419453	10298.821	-66809.26	-66189.35	-79707.805
H	1.0	4.994331	3.3623054	21.695219	678297.94	144437.2	312834.44	-6.921317e9
H	1.0	2.796087	9.073532	18.039022	406551.03	-41188.043	-163456.39	-278210.5
H	1.0	2.1543207	11.942262	0.056792576	-458108.06	74389.32	26426.844	-392814.6
H	1.0	3.6612074	0.5850643	5.6468787	-37252.4	-255202.05	251618.64	-4581.8755
H	1.0	7.33458	14.496083	4.9134197	222481.38	142543.84	-282061.34	-1.1012489e6
H	1.0	22.600965	16.92032	2.3935544	-138275.81	-15647.832	-31888.805	4.602917e9
H	1.0	1.9588748	12.294753	13.173566	-528257.4	-53857.84	-466638.6	-844462.44
H	1.0	1.8145212	22.314714	18.858315	132224.94	96783.055	-4144.835	932620.3
H	1.0	21.206726	11.406948	11.920863	385797.62	-395469.53	217377.84	349850.34
H	1.0	19.07504	8.4792595	2.1799278	-122674.09	417022.1	138076.12	459838.5
H	1.0	14.548397	20.389679	8.8815365	322309.16	182744.38	33137.01	411489.34
H	1.0	7.350478	11.438671	19.080242	-196131.06	172308.12	-243956.98	-207310.45
H	1.0	9.900763	6.6667714	1.2635621	157954.42	105302.79	-381646.44	1.9116192e9
H	1.0	23.201052	4.299089	20.542906	319673.97	-877220.2	-68632.62	-8.874224e9
H	1.0	18.395275	11.583293	20.766298	-183475.19	-94769.53	-458564.8	-4.936991e9
H	1.0	2.4054065	20.075241	10.406333	-118863.91	-64147.89	102208.61	289205.03
H	1.0	4.518291	23.100903	22.176867	-200042.28	-226077.38	-275094.22	-1.1162045e9
H	1.0	18.402624	21.238327	8.82053	-31214.424	-368551.75	-523960.1	-549150.2
H	1.0	6.591266	18.7322	19.242434	-277811.3	-49253.953	-165491.88	133907.94
H	1.0	2.0105665	15.701916	16.862856	183257.53	210397.84	212703.27	-59208.89
H	1.0	14.356486	22.284218	11.102977	-796288.6	-26196.984	-172475.61	-8.4807276e9
H	1.0	15.608925	18.075748	21.390776	173925.8	-192754.33	-393450.78	-569377.0
H	1.0	10.440848	9.804622	4.9004345	-210597.28	48932.727	162683.75	-2.7747376e8
H	1.0	23.362913	8.28733	1.006926	316554.0	-96429.14	118222.92	-89464.09
H	1.0	3.076393	19.5172	13.103855	-207309.52	291742.44	304738.62	638746.5
H	1.0	6.358882	5.2962537	13.270901	113283.055	975315.25	-616085.75	-2.7555938e6
H	1.0	14.717849	0.02136361	0.28133032	795313.56	446986.97	169301.23	-6.058205e9
H	1.0	18.667013	6.499105	21.329933	558474.4	365756.94	-185354.83	-1.1368886e9
H	1.0	20.113602	3.068643	5.334435	331402.06	267883.25	-193278.77	2.0275114e9
H	1.0	12.940477	21.598188	12.6887455	-144284.47	-102340.79	295817.34	6.3228186e9
H	1.0	19.984146	2.9192276	23.142153	29106.42	20722.715	-105917.04	1.4663604e9
H	1.0	17.420694	23.059315	9.467461	371742.22	-225748.3	-126590.19	-775226.44
H	1.0	23.436455	8.88368	13.776411	-208994.45	21142.322	142745.69	17356.207
H	1.0	2.6222668	0.6934694	3.192989	241800.53	-240533.88	-166209.02	-6.0328544e8
H	1.0	5.6490016	3.4271402	7.0972834	380074.1	-435480.12	123025.48	-4.9531433e9
1000
Lattice="24.079964 24.079964 24.079964 0.0 0.0 0.0 0.0 0.0 0.0" Properties="Particle Type:S:1:Radius:R:1:Position:R:3:Velocity:R:3:Entropy:R:1" 
He	1.0	6.5803447	2.1875668	2.9947095	43957.32	-79208.766	22257.324	1.6443871e6
He	1.0	2.367314	16.128439	10.333625	6889.9126	5101.061	3069.389	588361.25
He	1.0	2.299852	3.419019	7.179093	5658.6494	-2597.6838	-178.08565	1.347861e6
He	1.0	1.0494214	18.870579	19.531889	7328.1016	2618.7078	-8995.167	-96.466286
He	1.0	21.094532	10.553537	21.305641	1550.7533	12991.212	6812.449	675072.44
He	1.0	4.718948	12.4657135	21.824415	2111.9155	-697.91943	-1505.723	8.381632e7
He	1.0	2.2307346	8.364732	14.191525	2964.8125	1655.6378	-4980.391	-14.178013
He	1.0	16.56096	23.762793	7.3219914	1432.3058	-5.7518187	-3168.2917	124.0612
He	1.0	7.3671117	21.36226	22.092464	3777.5725	9641.879	971.1931	36151.773
He	1.0	23.079302	1.2256465	16.5216	-3657.3381	-4928.339	4972.0527	6.828439e6
He	1.0	6.0271564	16.55584	6.9076405	2330.1187	-3229.466	-981.5382	1.4903986e6
He	1.0	18.55664	22.210009	11.516997	3941.83	4590.151	523.10004	33.196617
He	1.0	16.6027	6.331857	11.691844	15395.249	1247.034	335.31403	118833.02
He	1.0	15.647365	6.116486	9.9557905	-88.99381	-4995.665	939.21173	1.2093943e9
He	1.0	2.7653599	14.222176	10.904339	340.6688	-1934.2861	-4921.737	1.3106065e6
He	1.0	1.874345	11.043417	2.04024	5269.885	-6764.6577	2642.7139	2.04233e9
He	1.0	8.270617	5.1751194	9.640839	1235.1702	1263.6033	-1380.2252	98083.78
He	1.0	11.135555	2.6016288	21.482347	1522.5576	-5703.079	-4061.0154	12036.274
He	1.0	23.123627	16.9851	15.627485	-38483.69	-16177.487	-37709.766	6.519925e9
He	1.0	24.03481	10.350867	11.903511	-4523.387	-11800.932	-25784.229	1.818599e8
He	1.0	14.24724	4.4150343	9.249557	-1945.3243	-6704.972	-31212.85	121257.93
He	1.0	9.052363	20.448746	3.1079898	4809.683	2427.9724	-3289.4622	745433.5
He	1.0	7.3726344	20.424082	5.0291886	3535.3567	-2366.267	4115.6284	147261.06
He	1.0	18.011305	15.070325	20.650894	9522.777	11482.993	12074.582	7.314136e9
He	1.0	8.533092	3.3944387	11.919441	5034.532	8288.473	-720.9025	10431.361
He	1.0	0.5119013	9.566899	3.1888692	-483.59064	-1224.8066	1673.4281	477145.12
He	1.0	8.686912	20.430067	0.57706594	-1237.0437	-1927.0458	-5192.617	-137835.92
He	1.0	18.470634	17.496721	0.52192616	-9375.062	-5993.838	3518.6238	7.943257e8
He	1.0	22.230576	22.98627	16.044886	-4715.979	-5475.555	4336.588	-153643.88
He	1.0	20.448065	13.598622	6.880344	6960.2207	-5190.969	-4118.649	8352.785
He	1.0	20.647154	7.733654	11.005378	-2893.1196	-2228.903	2100.0007	58085.883
He	1.0	21.454964	7.2256446	18.871408	-8912.468	4301.2905	2698.8162	-1.1140525e6
He	1.0	17.276897	13.529419	10.921808	808.11096	-1477.3524	2097.825	208040.92
He	1.0	3.8402028	11.195717	1.3963093	-552.7649	-9030.49	921.7376	153530.61
He	1.0	15.5764885	18.633701	10.081002	3383.2275	2832.0256	6382.952	1.2757772e9
He	1.0	12.261636	7.8701053	14.600726	-2195.5964	-2492.3728	-5172.7114	10009.543
He	1.0	9.302399	16.143631	4.4391384	447.0318	-552.2493	-1388.8334	3.0129014e7
He	1.0	2.4254255	22.356827	3.1313562	3471.0718	3369.8271	-2437.6409	-52.87123
He	1.0	4.9554987	18.433899	22.606405	11380.271	26881.719	-10414.273	776955.94
He	1.0	14.165339	4.8557663	14.098052	-1722.93	9700.41	-532.2063	-1.0968334e6
He	1.0	15.814435	4.150154	22.19829	22513.129	-3071.9058	3605.9639	6.8544215e6
He	1.0	15.510512	21.642778	18.591225	6187.8286	-1621.8029	-434.78702	-66.82646
He	1.0	18.603506	21.14996	15.000382	62237.023	-7945.5015	419.81372	429146.4
He	1.0	11.660448	7.6590505	8.253691	-3569.8733	1011.97076	3483.0618	262249.5
He	1.0	13.118829	23.560173	22.238453	2451.5115	2931.566	-3465.3723	-70876.64
He	1.0	15.756368	18.235466	5.815849	55291.914	45337.387	-19506.428	1.2229658e6
He	1.0	6.685677	23.63948	17.012697	4526.2715	-4481.641	3049.3823	843654.5
He	1.0	8.619834	22.608686	11.72551	-2244.3838	-181.2301	2934.4326	770095.25
He	1.0	21.918074	19.055162	7.6806273	1336.5835	-5925.5835	3344.463	-271595.47
He	1.0	14.526336	6.220934	22.818045	4241.2026	-1628.7357	1891.1595	195352.25
He	1.0	17.336538	8.629006	17.896378	549.90436	21.867025	-4288.6294	728007.4
He	1.0	11.705129	15.942585	3.7385197	3861.1482	1831.7114	-1115.2472	5.7869856e8
He	1.0	12.410891	20.058043	8.669929	1178.1998	-735.0675	653.85876	1.4239493e9
He	1.0	4.316765	1.929878	3.7145123	4284.477	5227.1724	-5796.0303	1159.6816
He	1.0	6.4507084	7.94412	17.95418	-3036.139	1267.7383	1853.0244	1.0577532e6
He	1.0	5.986416	2.948399	0.62236625	2810.0645	-4245.067	7545.5386	-983887.8
He	1.0	14.904898	4.835435	6.2216787	-5984.89	-1754.7014	-5173.5615	15.280964
He	1.0	15.605761	21.842867	12.673277	34958.438	-42542.465	39883.77	5.1854106e9
He	1.0	18.071863	5.172166	9.641617	-3442.7644	1819.6907	4420.717	-219674.17
He	1.0	23.596487	18.68109	21.755455	-10287.3955	-31533.94	-6718.93	1.6150511e9
He	1.0	13.370738	19.271885	4.361939	2655.6973	2394.2317	-2741.1716	9.21914e7
He	1.0	3.1183355	21.062874	1.6854366	-32875.004	4126.6055	-59230.34	3.577274e9
He	1.0	21.930706	0.00054639333	1.8338543	3491.715	3247.228	2494.7583	-23072.896
He	1.0	12.220582	10.094766	16.402927	-865.4857	-363.76892	-5731.003	59336.203
He	1.0	17.613123	22.989014	16.317797	-1975.2416	1746.6884	9787.154	-216.8952
He	1.0	5.535755	9.746061	23.923622	-2250.6548	-2822.792	2423.628	-26.88009
He	1.0	18.429846	10.02054	3.518107	-26816.523	-1608.9441	21583.021	2.185e6
He	1.0	22.428394	14.3050375	17.394333	3210.257	8787.939	23.891542	123633.445
He	1.0	3.1754274	16.973242	6.0345592	2834.116	-859.78766	-6148.1147	605925.3
He	1.0	10.954359	17.994122	3.381228	52278.5	-16281.061	30665.338	417313.34
He	1.0	16.774748	20.387838	0.8492571	-33209.805	6744.504	122207.33	1.9671572e6
He	1.0	4.1853414	21.960356	9.502866	4631.393	9882.489	3688.5361	-248.17493
He	1.0	22.541721	6.1742077	2.2063348	-2548.786	2910.666	-6569.729	489299.34
He	1.0	22.754297	5.1696243	7.070489	553.9748	6915.0005	5920.7476	595488.75
He	1.0	6.6323304	8.005971	8.077739	-353.057	3518.7424	389.7428	1.0607886e9
He	1.0	14.017463	17.809113	11.32871	-5170.3247	-1700.4973	2283.519	645579.6
He	1.0	2.351778	19.481424	6.943517	-2789.3613	-2866.6455	-7355.356	-138.75279
He	1.0	2.672665	23.564623	16.923454	4789.2466	21921.58	14020.158	111618.74
He	1.0	23.878471	21.025692	10.518155	1408.8292	3221.6404	5530.811	30474.494
He	1.0	4.569623	24.078737	10.696978	-3216.44	-380.47845	-3574.4106	48.202225
He	1.0	9.802043	5.1902285	12.69489	2530.6096	-6673.022	-1964.968	-33.25949
He	1.0	23.066519	1.5693089	21.371996	-1460.5709	-7097.5576	-2224.8433	-406275.7
He	1.0	13.598868	21.218685	6.9860644	61888.008	-60108.93	-1985.7505	430843.6
He	1.0	2.264808	3.0725794	21.088514	4728.2603	1035.9822	-5848.405	-324058.06
He	1.0	17.556753	19.046534	21.567453	4037.9675	7790.882	-1251.6553	-126.64405
He	1.0	4.3962965	8.659735	8.837543	5355.9976	2052.303	2775.2603	-73.831665
He	1.0	16.767275	22.942284	1.4097502	-1542.3501	798.3804	-954.3942	1.5423061e7
He	1.0	9.912444	4.0730824	17.650417	5546.881	1196.9069	7561.3467	652587.75
He	1.0	18.832293	7.171199	5.494405	16321.321	17972.535	-91356.43	59903.367
He	1.0	14.951866	1.9207946	19.008968	-3720.2805	852.37366	5398.3154	1.0542152e6
He	1.0	16.300886	10.138804	16.338667	-8619.54	5383.5103	2766.2642	8.077944e7
He	1.0	0.8959808	4.404104	14.824604	579.72424	-50713.72	17596.506	6.59643e8
He	1.0	4.183927	23.121822	3.8981998	4958.5884	2623.06	923.202	1.9091878e8
He	1.0	20.209032	20.774061	6.7257004	2399.407	-4981.2036	-652.9188	577132.0
He	1.0	23.675425	12.79998	23.548649	-53.607254	4561.891	2688.3044	1.2080486e6
He	1.0	9.242772	14.797404	7.626569	1207.3921	-12367.43	-7660.0986	120832.086
He	1.0	22.19202	4.3599916	10.056456	-325.5544	-201.99956	310.19812	356.91
He	1.0	11.732172	24.037262	15.986896	9664.604	189.00093	-1455.0265	-140.89801
He	1.0	9.190675	22.057144	22.521526	1328.0701	3634.9795	2873.1975	8.813035e8
He	1.0	5.4716616	3.8485644	15.669354	-4080.1028	1201.498	-638.35895	3.6105798e6
He	1.0	18.103365	23.284273	18.31252	637.3035	778.78845	2828.3123	76.454735
He	1.0	6.6782327	14.851845	8.969242	-8628.952	-4945.2207	-29209.432	6177.0684
He	1.0	19.758389	10.704167	10.299254	-6060.1313	7329.895	3109.9097	4.405591e7
He	1.0	11.107314	23.466095	12.040508	-5105.1675	-4142.951	2741.4885	87.028854
He	1.0	16.629025	19.671265	4.7641644	15187.892	-1139.8944	30652.494	2.0444134e9
He	1.0	1.5779752	15.055435	14.085526	-632.3408	942.0381	3702.9912	1.7955264e9
He	1.0	12.608269	2.980239	18.472296	-1148.037	-6923.9614	4690.19	-34.16703
He	1.0	10.812267	0.17426334	22.729225	838.21515	21933.186	-237.86632	1.8984695e9
He	1.0	21.062595	14.585268	10.416042	-1800.5238	-6869.5474	2013.8976	3.293328e9
He	1.0	4.8404593	0.005278229	7.1898255	15053.315	-7117.271	19050.658	1.664737e9
He	1.0	5.633485	8.262142	5.5555034	-919.6128	-3668.1675	-7363.597	-100.44135
He	1.0	20.639921	2.8860319	1.0459328	5763.2144	4652.531	-2073.618	1.3025226e9
He	1.0	8.924106	13.266433	20.323917	-551.85333	-2339.1035	3405.8203	6288.955
He	1.0	9.493308	9.882613	20.96896	-419.78674	10764.096	8831.872	31390.256
He	1.0	11.538554	20.307755	15.9831	-4254.9907	-4756.0347	-5471.334	-832125.0
He	1.0	8.465099	0.46881616	23.966047	529.45074	592.96375	-7604.556	1.4699773e10
He	1.0	1.6854966	1.7090892	18.893225	1326.0127	3079.3372	-3877.679	4.7559245e9
He	1.0	8.218962	11.145519	7.518669	10971.683	1024.0282	-279.84045	407080.12
He	1.0	7.970852	6.918093	5.909547	-1126.1412	3080.3965	-3200.367	-12.145609
He	1.0	18.94524	17.225233	16.125366	2346.3174	1326.6	-315.6555	197.6406
He	1.0	1.7366911	23.735153	10.647071	-492.59305	-576.7025	-2818.8782	554837.9
He	1.0	12.350008	2.061665	11.9617815	-4727.439	3634.5667	-97.41136	133712.95
He	1.0	17.308186	22.815788	12.976686	33247.23	37311.508	9654.843	2.4229747e9
He	1.0	21.950535	21.178635	23.042849	8587.323	14336.389	27411.875	157338.44
He	1.0	19.952383	4.5295906	17.394602	3838.574	-1074.3009	3117.5088	201601.23
He	1.0	9.138863	2.632624	21.470469	-6340.8887	-26.352251	232.84	14334.0205
He	1.0	1.1834325	1.8257759	0.9876684	1720.8372	-467.9178	7481.6133	-379742.4
He	1.0	4.650748	21.266554	12.102693	-2278.3093	-4390.178	-2876.4028	8.5594816e8
He	1.0	19.514036	0.17297962	15.849639	5557.1143	684.2881	-1002.537	2.1872387e9
He	1.0	2.985596	4.601057	13.329542	51271.316	2833.621	136538.23	536895.9
He	1.0	20.31396	18.92961	10.664301	-3027.9143	6071.258	-1645.7314	1.7732025e6
He	1.0	8.911804	4.0649023	14.120337	-1396.0056	-1713.7908	-1172.8604	22605.588
He	1.0	8.74742	11.395297	0.3956589	-70266.055	21304.236	-21310.904	469302.28
He	1.0	1.3728138	14.880192	18.70939	9642.611	-9696.922	-1738.8297	1.3993697e9
He	1.0	4.743741	17.849642	15.179045	-6327.88	4702.9478	1805.9432	-723683.0
He	1.0	14.753162	12.996372	10.5918455	7917.401	2074.7563	-2247.458	1.8418312e9
He	1.0	15.00699	17.308714	2.0009594	-1212.8059	-1971.5363	-6612.8423	-273602.6
He	1.0	2.1544597	6.9024363	10.213924	1005.4576	-2970.2573	2439.6096	19974.121
He	1.0	23.48313	2.8378289	18.904285	-1110.0099	-913.7185	572.585	170937.22
He	1.0	22.81499	1.7749563	0.9487583	19486.719	37794.934	40604.73	5.0429834e8
He	1.0	19.31062	3.2963746	8.489243	2395.723	3118.1257	-2749.6775	1.653577e9
He	1.0	6.974636	14.1732025	23.165161	1814.6936	572.62427	-2816.8496	288775.4
He	1.0	13.259569	0.08877073	19.841682	-2049.1797	-2271.3872	1675.0295	1.5761116e6
He	1.0	10.368689	12.4838915	2.3604681	7555.7466	4988.3125	6552.315	-210561.12
He	1.0	21.772297	17.840532	18.285477	3126.0935	-2207.3608	1491.2263	69.75674
He	1.0	3.3621142	7.80485	4.0206947	-754.0391	935.4815	220.56224	1.4232315e6
He	1.0	15.571417	14.4846325	6.2328253	3468.1294	2157.666	3129.5962	201.14775
He	1.0	19.474213	3.6671512	10.511632	8382.397	69663.79	-31362.053	1.1649382e6
He	1.0	17.248446	14.507429	4.838416	-745.6329	9726.202	4368.1074	4.0889818e9
He	1.0	13.490706	18.833199	21.206686	-1031.4246	9417.736	3346.3523	-1.0615e6
He	1.0	18.656515	10.124737	13.137435	-96033.555	34161.98	-8986.226	165964.94
He	1.0	9.927191	12.629841	6.9502335	45556.41	46581.16	60022.125	4.546185e9
He	1.0	14.053579	16.227571	4.2820644	-3556.2214	1631.791	560.73444	174179.31
He	1.0	7.867211	1.1538235	17.281164	-147.20586	769.8447	10095.562	-797695.4
He	1.0	5.9169726	12.288048	12.4374075	2034.124	-4075.4744	-1957.4246	132.71318
He	1.0	23.00448	0.8385491	14.563151	8648.709	10366.073	-279.62634	28637.846
He	1.0	10.53597	22.005732	9.747643	-6.479485	-2385.5005	3291.8071	-65868.6
He	1.0	8.136446	18.648798	20.67842	2001.1815	3055.6313	-886.85156	113684.87
He	1.0	12.69847	9.2084875	18.17301	1421.8569	3577.1963	4937.216	-88.599754
He	1.0	4.3788247	6.5819373	9.939078	-8960.324	-3592.57	6391.245	7.285282e8
He	1.0	22.188879	15.404384	19.347158	910.5689	-1017.94366	-4309.651	44.083122
He	1.0	17.87692	11.479891	9.035229	16076.861	21642.72	55588.406	3.2364486e8
He	1.0	7.6564956	9.776637	17.908695	-5874.1455	-3011.2678	156.76115	-188847.25
He	1.0	4.122777	2.1544023	7.188644	5025.34	8604.216	734.6871	51316.16
He	1.0	14.517429	6.6701097	8.408782	-1947.4948	1273.8783	-13330.287	2.117256e8
He	1.0	2.7872405	4.65789	8.956388	-6038.6973	-978.50433	745.46875	9.1370195e8
He	1.0	0.77260315	7.8493886	4.840398	-521.121	1384.9982	-835.17487	237.09074
He	1.0	11.305409	13.24245	12.550949	-1979.3577	5717.4365	-570.71594	-339534.84
He	1.0	22.072065	19.946854	15.197654	5500.661	-6689.658	17711.264	37993.33
He	1.0	9.656629	14.517668	16.361225	-447.35913	2501.9788	-1830.2806	390879.2
He	1.0	4.320622	14.228275	9.33219	3761.9973	2497.8066	4200.4336	9495.215
He	1.0	11.077397	17.81521	1.1539842	-4824.647	-1211.544	2045.0022	436871.56
He	1.0	14.241235	22.463722	20.851791	-983.79376	-602.1037	-413.6658	721627.0
He	1.0	10.188751	22.32416	13.537044	1960.8717	2345.78	3123.073	102.22385
He	1.0	21.036903	16.050966	22.552443	32467.02	9748.266	4153.4976	182878.95
He	1.0	9.852335	19.042307	4.809895	-4657.0825	273.13852	-5756.3228	1.3667932e9
He	1.0	22.655909	3.2491593	22.963438	-34972.543	-1430.886	16980.787	4.215582e9
He	1.0	13.295297	13.680224	12.542672	1070.8875	6231.619	-2629.928	481014.62
He	1.0	13.042128	18.148932	1.2973781	8537.048	-4508.7754	-775.579	102761.52
He	1.0	9.533674	16.124971	15.109467	-5553.8594	-2008.3715	6943.1875	-506457.47
He	1.0	13.461001	4.43836	4.8285747	-5121.8296	3866.624	-887.4176	816538.0
He	1.0	13.023532	14.277191	3.9719548	4936.8115	-1216.7836	732.6624	126583.32
He	1.0	21.182997	9.623685	18.29098	27627.688	-23935.916	38690.402	62264.875
He	1.0	4.568989	7.9888225	19.324398	4225.315	1046.9222	195.05028	9.369232e7
He	1.0	22.718956	8.097988	5.1144385	-5470.1694	2690.9497	2208.6948	44127.715
He	1.0	17.641253	3.7609828	14.096787	7031.805	1943.3331	5151.626	508845.47
He	1.0	3.9124088	1.917825	18.310724	6908.926	-2056.6838	3611.8647	147574.19
He	1.0	9.516303	20.689812	11.132019	8262.943	-691.07275	-748.2139	209.74658
He	1.0	0.015570065	15.33946	16.8938	661.0219	3363.047	637.58307	241356.88
He	1.0	21.829529	9.6239395	6.1833296	-3292.0195	951.2342	-5146.929	12056.996
He	1.0	1.7394608	14.36425	20.883501	4009.915	11069.158	5697.4136	4058.404
He	1.0	2.5018296	18.037832	9.216294	-447.1961	-1483.8241	2236.814	102.642715
He	1.0	17.176804	1.7654688	7.3967996	-1826.3026	3552.329	2165.6072	13.550869
He	1.0	8.103033	16.695286	7.31876	9043.328	7653.823	3476.5713	17534.76
He	1.0	22.473467	9.882374	3.3060775	527.51605	-1012.1872	-945.50244	6.723592e8
He	1.0	22.18512	15.385897	13.932458	-2580.34	-918.8156	-8072.0127	387.94717
He	1.0	21.441435	13.633747	15.666069	711.3854	-4532.991	-905.4459	-29847.713
He	1.0	10.326111	12.386425	9.544327	4309.6216	11709.053	2991.6592	321694.2
He	1.0	16.946312	14.456784	0.15349568	-1858.3503	-3030.207	-8193.94	259861.53
He	1.0	6.5143886	2.194213	8.739233	-890.14996	-3588.7097	1127.2252	3302.077
He	1.0	7.8336334	9.215504	10.308303	8476.625	-4283.793	2493.3218	1.4787169e9
He	1.0	9.275727	16.5506	22.189087	-47689.09	-115151.89	-5070.0156	935870.44
He	1.0	10.53065	2.004001	3.2300608	-4938.25	6831.5376	-2639.3948	1.9327275e8
He	1.0	15.776731	17.318642	19.094843	4649.9136	277.3435	4400.721	588980.7
He	1.0	20.340527	0.7505516	0.6129625	-9435.603	-292.91498	-1975.9584	3.3866296e9
He	1.0	4.621876	15.357196	7.710298	1869.2533	-1094.108	-3360.6448	3.4268068e7
He	1.0	13.895545	8.717179	9.226034	8462.288	-2292.0664	-44279.24	9.735443e8
He	1.0	6.7809834	23.964167	12.077387	-3893.3904	316.7225	-1528.7236	1.3523878
He	1.0	3.3780923	1.0133271	15.840555	4890.5586	-1980.1531	-7359.2676	3.8397025e6
He	1.0	11.22733	1.2103235	5.250559	291.83936	-2395.055	-2365.9944	93686.24
He	1.0	2.196874	8.460085	16.19053	-4346.549	-2964.3174	8729.538	626528.9
He	1.0	5.012161	2.5591357	10.424503	-774.33	5357.2046	-685.776	336040.9
He	1.0	17.307985	2.6360662	12.478131	4568.7534	5651.912	3859.5886	-187.54106
He	1.0	10.621828	18.167461	14.693417	3445.4473	-2319.8066	7050.4585	-776175.06
He	1.0	0.91324145	22.762985	6.326493	6711.2534	2205.0405	4146.971	1.3919483e9
He	1.0	4.168845	0.20798165	1.5065988	5723.932	3578.624	-262.59515	9.430968e9
He	1.0	9.547952	19.847008	15.790737	-6341.413	503.73123	-538.4128	-65395.793
He	1.0	9.187343	13.486123	22.299543	-6274.261	966.0046	-3180.8044	-283420.9
He	1.0	1.767147	18.51748	5.2915125	3174.7605	6317.5425	7809.5615	-49.55128
He	1.0	2.7721565	11.25483	8.911927	1262.291	-3266.8801	-7470.395	-114.01766
He	1.0	24.011263	14.564742	20.048655	-3843.105	3382.925	-14368.695	97377.375
He	1.0	2.6075451	10.220456	15.020076	-75.661446	-5436.446	755.1154	163428.23
He	1.0	13.112193	11.366481	6.413575	-2430.7004	-1565.9933	2851.1711	5.8853145e6
He	1.0	14.78432	22.004496	1.1960199	5792.07	1072.6053	3252.028	514917.4
He	1.0	22.271082	5.7507567	4.274289	-5095.8887	5816.014	4059.1638	-136225.03
He	1.0	2.0363922	9.378743	21.654392	2323.0688	-3596.118	-3730.7734	-49.83855
He	1.0	10.686395	8.987478	23.960335	53.13559	-291.71335	10746.671	1.689278e8
He	1.0	12.51714	18.626944	10.269238	-5944.962	475.62173	6644.408	-125.461266
He	1.0	15.702477	21.269852	6.2287354	3893.0244	14335.444	-9718.541	3.728144e8
He	1.0	0.50260115	9.73586	16.859358	1377.3259	350.06403	-4008.6824	563945.94
He	1.0	7.377804	3.0466506	10.327621	-316.27963	-111.34555	-5857.714	2783.2566
He	1.0	3.522839	3.5532038	17.224903	1767.6038	1058.3813	2297.9106	47337.047
He	1.0	21.301065	20.348013	9.383537	-4428.709	418.9098	-2242.2178	5.913363e8
He	1.0	8.910964	7.584522	8.420631	1644.1562	-1802.7793	2314.4111	1.394545e6
He	1.0	12.797278	19.87808	2.538374	-6294.2866	-139.15326	2024.3068	1.783502e8
He	1.0	5.9147787	7.7908382	14.522383	1088.1931	-868.26605	1989.0393	1.539468e7
He	1.0	7.776224	21.432726	19.172985	-5209.0713	11328.696	-2775.678	2.0212987e8
He	1.0	17.59061	8.534445	23.848383	916.6578	-3730.8857	1418.5623	9299.76
He	1.0	10.435626	5.251443	22.31956	4459.11	4633.975	-3822.2034	754151.2
He	1.0	17.587755	4.923791	19.687927	-7205.797	3046.0764	629.28705	3.6337578e8
He	1.0	6.096511	8.278365	12.592706	3433.7056	5396.056	-7109.5806	3256.2754
He	1.0	6.7840686	0.37837565	22.762148	-4834.0034	-5220.8794	-2306.4365	-32.833527
He	1.0	12.587029	15.076478	6.1375904	486.78632	7356.1196	1892.2239	-126.301735
He	1.0	19.217777	20.472477	21.257545	-16355.874	30165.205	14434.097	726378.3
He	1.0	19.816084	6.609966	15.45043	4997.654	-8681.273	5028.0996	5743.1206
He	1.0	0.045780756	21.218124	7.6042013	1315.6311	2189.3123	-418.25195	64395.688
He	1.0	12.074652	3.441744	10.461409	-2001.849	3670.9475	7187.9785	63.15627
He	1.0	19.344002	23.991655	20.006239	4592.071	3954.6375	-941.7103	-326095.25
He	1.0	5.369904	18.25846	17.312712	-3735.9626	1126.5452	8695.312	-985460.25
He	1.0	12.0429535	13.47955	7.289135	1019.14496	-5696.211	-1630.3196	41.00155
He	1.0	21.43651	19.951677	21.564524	-7730.58	-13121.792	-17623.514	156031.83
He	1.0	8.773818	8.154752	12.409943	12431.439	19029.887	3962.4026	167384.45
He	1.0	2.2466795	13.036219	15.854804	2554.9268	-2034.5365	2944.8682	331342.84
He	1.0	5.4206057	17.408842	5.1768985	-81191.96	-44689.31	-27991.846	3.1155505e9
He	1.0	20.913347	15.753277	7.595726	-2650.7507	273.70392	-903.74316	497003.06
He	1.0	17.006718	6.743683	18.776875	-1785.3645	-7015.1475	5090.552	1.2785879e9
He	1.0	4.277646	15.86285	1.6976964	5819.3564	-658.5717	442.49207	225503.3
He	1.0	7.877141	3.7522378	3.6799302	-1246.3738	2544.5183	2023.7202	78656.73
He	1.0	10.8369055	3.013276	6.5473657	-53245.598	-15049.573	-1996.7314	788667.4
He	1.0	19.47257	7.25022	23.53481	-40798.53	4741.6323	4050.571	170511.69
He	1.0	15.361869	14.38413	13.553972	-37884.95	-14066.495	-40094.99	1.3953505e9
He	1.0	9.833199	23.261229	3.5576289	-5339.0815	-7826.6143	-4262.243	7.5832934e8
He	1.0	1.6296256	7.4775376	21.130838	29606.404	-7507.282	38372.395	6.6347936e8
He	1.0	7.823991	6.668908	22.086134	-2213.8513	-2430.805	-8447.019	7.4770355e8
He	1.0	17.478064	10.816789	7.217659	-10100.435	-7385.594	66643.17	263470.5
He	1.0	22.7721	3.3105714	11.692057	-6183.984	-860.6644	-8238.124	-208.25719
He	1.0	14.435841	8.892889	13.524588	-1298.3193	8037.5747	-330.75482	-621525.25
He	1.0	3.8193507	10.238204	22.993862	-996.7974	6472.0273	-2835.1812	-391224.25
He	1.0	20.643162	13.835649	13.256833	2530.4287	3330.101	5044.7944	-120.0121
He	1.0	5.1978774	3.435787	4.6913834	3768.4333	-3041.2786	4608.083	8.602875e7
He	1.0	16.607952	11.586586	18.516409	-3765.6753	-856.60815	3331.8586	626814.94
He	1.0	20.176888	14.575918	0.2870787	-3873.1025	19071.238	17962.793	2.2746173e9
He	1.0	11.860381	4.802263	12.240718	-71.49013	-5862.9355	2682.8357	-294924.56
He	1.0	12.126707	11.86069	14.672069	-1713.3835	-3299.7007	-1545.1512	230650.73
He	1.0	0.19822468	13.263887	13.93114	2350.9604	-6423.412	456.09558	151.13887
He	1.0	0.5687905	23.668985	15.971815	-5283.6484	-2832.6392	-1402.6533	-30.975657
He	1.0	11.734308	23.830942	3.350667	12444.982	10081.363	-411.6366	41858.156
He	1.0	11.574554	10.671835	2.7526414	643.28406	-3650.7827	1626.8125	919404.2
He	1.0	12.7434435	9.980923	20.234905	-2290.3635	891.8673	-213.4911	2.0284872e9
He	1.0	19.129374	13.592879	2.131216	-13503.562	19669.213	12846.623	9.1385504e8
He	1.0	14.775495	8.332965	22.800537	-3385.9604	-765.5654	3746.186	1.8180886e6
He	1.0	7.33792	6.8439703	11.963106	-11999.609	-17901.018	-5610.1426	1.989999e9
He	1.0	6.0715494	7.7268753	0.19088815	-3714.7551	2218.8503	-6538.47	176.19566
He	1.0	21.504047	12.052772	8.007156	5707.736	5275.3555	3303.5652	-39.434875
He	1.0	23.350214	21.49968	16.900328	-49706.68	100908.1	12193.083	41059.305
He	1.0	20.755579	9.730078	8.868533	12005.467	-3616.428	-5773.8306	13517.0205
He	1.0	5.1684623	8.893888	1.6167874	-2783.1553	979.11993	-4823.907	-23.206854
He	1.0	18.826698	14.198328	16.915705	5243.65	1556.068	3419.1147	1.9876494e7
He	1.0	9.62683	8.060484	21.944096	-4406.709	4951.3516	1395.3966	348456.9
He	1.0	15.773822	12.476804	12.872282	-3393.095	-18.683084	4435.948	688190.5
He	1.0	12.503215	18.442352	23.175722	1009.1666	-4351.5293	-1742.8785	-104355.6
He	1.0	5.3373427	15.892492	3.6854858	-89437.17	-31238.209	-25571.875	2.4246264e9
He	1.0	22.2267	12.571804	5.8674335	-349.1961	2900.6272	-2269.5938	-111011.33
He	1.0	5.6188836	3.0856943	19.63358	-2832.4126	-2864.5425	-2678.1438	153046.94
He	1.0	12.76053	1.5809603	0.23348199	-386.06766	2920.998	-1943.3883	1.6351999e9
He	1.0	15.96084	0.071237445	17.110626	-1670.4305	5491.113	3037.4094	1.1207777e8
He	1.0	1.0621841	21.129053	4.084096	7579.75	13426.24	-6809.342	2.148121e9
He	1.0	21.610447	18.280258	13.858894	-11050.764	-5492.376	-436.4798	-1.7896101e6
He	1.0	19.024227	0.10537302	8.838852	36697.688	37733.527	-11402.635	1.2228877e9
He	1.0	11.897637	4.8240438	23.658192	-187.26865	-4510.87	-22.046253	303024.1
He	1.0	10.267542	6.437041	19.87423	3405.1316	-4635.27	-3403.4404	2317.8057
He	1.0	6.0168147	6.43758	2.5346954	-2856.1067	2785.4177	-5518.1274	166459.81
He	1.0	6.59483	22.59095	4.6205244	4280.5366	3311.9639	-5415.553	1.1660079e6
He	1.0	3.0026727	8.696662	10.458228	1370.16	-5335.514	-7536.557	1.7083252e9
He	1.0	22.992092	5.761889	22.145197	-1526.0476	-67.67056	4982.336	-41.927574
He	1.0	15.27695	2.015127	23.390974	-40158.92	-56151.742	-47515.21	367732.88
He	1.0	10.720475	18.345707	11.117227	-9259.187	12217.508	13045.46	808.47546
He	1.0	16.358202	12.87189	9.23284	-1228.4391	2880.4868	-244.04341	578191.06
He	1.0	2.6155598	23.918665	12.675532	-5103.6885	-1171.8477	1623.6816	100.1452
He	1.0	1.2899977	19.961454	14.535495	7239.5186	1955.2937	-3772.5833	-393429.4
He	1.0	19.5782	9.587643	7.0863495	-436.05734	983.0073	-2279.5793	5.4110703
He	1.0	13.449814	12.067569	19.709835	-3371.1196	9151.806	-12260.743	2.8044048e7
He	1.0	0.71325016	12.667651	20.660078	-13284.229	8690.335	-13072.611	381804.75
He	1.0	17.965433	4.473285	6.9259925	3365.752	668.0226	5052.6494	35617.547
He	1.0	3.193972	7.628689	12.35522	4342.34	605.62494	-3296.1125	2.029762e8
He	1.0	23.667545	16.107782	11.673574	-3080.5798	8913.6045	-1525.5039	130354.24
He	1.0	20.483154	18.292633	6.3568683	160.69469	-2912.3926	-2918.8289	813784.25
He	1.0	0.78644013	1.8298807	8.851014	4440.932	1638.2704	-249.56131	-27.983637
He	1.0	5.8555202	22.276995	19.102453	1670.7355	4179.3135	3316.8293	2.7463127e9
He	1.0	8.669379	2.058968	4.757847	-25856.807	34879.0	-8388.636	1.266056e9
He	1.0	15.25371	12.280571	1.5632265	-13892.788	104631.055	98066.28	214022.98
He	1.0	15.335907	4.140452	3.541198	59.52331	6138.4194	-1830.712	45.03513
He	1.0	0.5254388	10.019867	22.810228	-1773.8586	-5195.979	-8625.536	4.583402e8
He	1.0	4.809047	16.570429	10.249257	-1592.5048	-1270.6405	584.77155	23.567997
He	1.0	8.482852	4.939534	20.77195	9735.986	9917.78	2570.1921	934023.7
He	1.0	19.001955	12.314023	17.55694	-288.6218	-8620.829	2750.8513	6001.731
He	1.0	19.295916	15.180717	22.155233	-1350.9567	-9169.138	31297.154	1.9623222e9
He	1.0	19.773605	16.411774	14.156834	-2003.1418	-4191.031	1320.143	195.88809
He	1.0	1.6034646	5.308406	3.703932	1120.3344	3449.759	-2770.879	279802.12
He	1.0	4.850505	5.0979404	19.205755	9361.214	2287.1155	7683.554	-333.89642
He	1.0	11.738699	4.99485	6.1746526	-1967.9788	-3172.0896	-4559.434	-64.99696
He	1.0	23.837193	14.214589	22.001476	-3134.3347	2051.0713	25631.846	4.1608448e8
He	1.0	23.787586	1.4813414	12.009746	670.753	-2077.8374	-4571.5347	933292.5
He	1.0	23.69528	0.31109974	9.551024	7826.431	1076.6394	3.6312377	2.4722825e6
He	1.0	0.8651798	13.26829	9.368141	2777.5513	-1436.8188	-5939.5527	30201.29
He	1.0	6.991472	10.004432	12.051772	5384.8545	-151.24142	3023.1958	67257.4
He	1.0	5.070556	16.620674	13.462939	1879.7765	2976.0027	-3912.453	96.86154
He	1.0	9.85257	8.384153	19.702965	3689.9614	-1839.8347	-4360.0747	5.937153e8
He	1.0	3.2963712	0.40121242	20.209124	2994.7283	1382.8776	-4667.9673	3.8087405e8
He	1.0	0.68913275	10.125962	0.7174806	-3978.95	-258.00806	4319.868	4.0221392e8
He	1.0	20.569868	22.331963	20.152447	31544.982	42280.082	19563.416	2.036118e9
He	1.0	6.9474273	3.0629845	22.289425	85.900215	-4046.901	6506.617	89760.07
He	1.0	22.491947	19.923418	11.765783	-1120.5212	-551.3116	2040.2521	158.5095
He	1.0	13.336336	18.842892	15.201753	-8508.692	1023.8317	6902.1416	-175.74493
He	1.0	20.741041	2.8268578	15.959576	-3877.743	4614.195	-3098.0378	-83108.125
He	1.0	11.7048	0.017393138	18.508268	5916.2744	15544.719	1900.6761	-2.7568072e6
He	1.0	14.784533	19.167025	2.782757	-3732.9585	-362.0681	3305.1104	2946.553
He	1.0	17.804193	6.42229	14.012844	-13141.807	9403.823	42339.004	5.1951437e9
He	1.0	9.288754	3.4857464	19.6627	6259.0796	-2841.0576	5941.871	54347.27
He	1.0	6.5872903	23.233355	20.779243	-292.0466	-7492.1772	7402.9805	47.9684
He	1.0	10.94078	2.0601025	17.02898	-11016.619	-15588.734	28800.254	402131.84
He	1.0	19.615967	20.16589	12.572569	-2870.6272	-1241.5044	5691.1406	-86.720276
He	1.0	11.973195	21.251226	22.286577	-164.38045	-21664.256	15583.247	291377.0
He	1.0	22.907204	0.75050235	7.7660522	-3646.4983	-2184.2007	1378.3889	953.6392
He	1.0	14.273125	14.066203	8.902429	-2593.5496	-906.6685	-3995.0774	28.934618
He	1.0	11.542119	2.974398	15.374776	71213.71	-13335.022	88631.66	290487.0
He	1.0	9.987548	11.703385	22.842373	6948.0874	2631.7903	-3702.366	-620064.6
He	1.0	12.392374	12.042842	17.893034	-47643.9	20388.15	21965.86	754439.2
He	1.0	23.652216	5.939746	19.45125	-7339.1357	22400.506	16128.865	300233.1
He	1.0	16.923819	21.890257	4.6043634	-1476.3362	213.6677	2573.6135	1.1454731e6
He	1.0	20.640356	6.925037	2.342608	-4001.1409	735.52625	992.1462	5.696755e8
He	1.0	12.803292	0.90251815	7.687044	2969.2786	-2010.0917	8178.3247	286750.0
He	1.0	14.781008	14.372411	2.2489562	10841.025	3625.9087	3291.4136	-290.87845
He	1.0	15.038594	15.275113	20.259977	24176.451	-15415.648	30978.51	732346.75
He	1.0	10.1182995	21.740292	18.342194	-2473.645	-1131.4845	-4188.1064	492497.5
He	1.0	18.032137	17.310806	22.637054	6106.552	-3710.7893	-612.7278	-100032.29
He	1.0	14.322934	10.419178	18.312555	1701.0261	205.4643	7771.9424	1.02024806e9
He	1.0	21.325706	0.8318807	19.133177	2738.1372	4841.4126	-6200.5015	-790955.7
He	1.0	18.229183	7.6914635	16.003754	-1428.8878	-61.605522	7905.7456	8.171849e7
He	1.0	18.281343	14.774165	13.397665	-33090.633	22376.232	90188.54	8.0331315e9
He	1.0	11.825838	15.020501	11.626888	-6515.4688	-3217.709	-4044.6267	-621967.06
He	1.0	15.550599	18.705908	15.323322	-4180.0054	-3124.795	-2572.093	-208499.12
He	1.0	13.0852785	8.12672	16.401962	2871.6594	1355.5596	913.48254	6.1780172e7
He	1.0	1.9402888	3.2352247	2.369097	87429.79	-34833.566	57373.67	293263.62
He	1.0	8.7771845	9.089797	14.596878	-894.2754	-224.86388	4501.1284	1.2991332e9
He	1.0	7.0115075	10.4850645	22.779562	-14490.088	17275.213	-1384.2621	4.005663e7
He	1.0	5.862403	17.726793	1.0417465	321.78348	7890.973	-4028.6248	-846131.44
He	1.0	6.644928	0.42613015	14.966503	28259.963	-28212.062	-729.45184	5.7197363e9
He	1.0	16.103785	0.67200565	22.178368	9518.272	19638.303	-2638.6643	2.694528e9
He	1.0	12.525703	17.769876	7.5525665	-61.255688	3117.615	-3657.4644	1.8957594e6
He	1.0	2.2209368	11.88208	21.699894	-13609.942	-6958.5786	33730.004	5.035248e9
He	1.0	0.06419542	11.060834	8.938397	692.5121	-3401.4026	-2983.9758	341074.12
He	1.0	0.10817367	12.034092	6.856597	-6262.567	-8019.091	-2161.366	-369692.84
He	1.0	10.656013	20.012863	0.7599679	-1211.6024	-5005.7266	-5932.817	-94.20902
He	1.0	6.262932	15.78652	0.16932236	-965.75616	1162.1375	856.71014	1.9228845e8
He	1.0	13.746147	5.9731183	16.161158	-1295.0194	-1793.2377	-4205.08	1.7486751e6
He	1.0	18.320627	4.321481	4.960492	855.09973	9971.876	-2241.8875	1265.2708
He	1.0	18.616388	4.582459	22.369797	1254.876	-2706.6765	-3547.704	117542.27
He	1.0	6.1153274	22.839514	10.413458	26.720716	2783.2126	-4690.532	-31.29711
He	1.0	4.039626	1.4744606	12.003219	4486.7007	7828.079	57.315987	427636.25
He	1.0	17.979239	9.621025	21.190578	12777.925	17862.93	-3513.1975	97555.55
He	1.0	4.549734	16.364092	20.574066	-7406.762	7416.7764	4672.351	1.4744758e8
He	1.0	2.229998	22.684372	7.9346204	-2263.6477	2059.7656	1538.1301	160.74553
He	1.0	11.0089655	9.295927	13.663665	-3211.1904	5224.454	4882.0234	5.643266e8
He	1.0	3.7452202	7.9837356	23.579512	4645.268	-403.40408	-1522.2552	41.61676
He	1.0	19.888292	18.626383	19.63403	-2260.642	3425.1755	258.19525	1.0544996e9
He	1.0	2.6552973	21.773657	16.056292	662.8971	-23254.541	-6756.731	126002.586
He	1.0	23.756298	10.229638	20.16618	1651.8086	5657.8438	1858.898	-135628.4
He	1.0	6.7818756	18.271145	7.716071	-3699.1057	-930.75494	-1340.4675	15647.54
He	1.0	20.431614	16.247028	9.505227	-3558.785	8488.584	-4982.801	1.802842e8
He	1.0	14.856632	19.617838	6.95737	-9938.606	-7115.1274	-6733.0747	639242.6
He	1.0	22.143873	4.817606	17.502306	-5828.4067	5813.433	-69.07905	2.6019086e8
He	1.0	16.129803	18.267454	23.457726	-6753.1587	-5379.0835	-3237.5803	-108671.21
He	1.0	5.6644583	20.19899	14.567755	35.4282	-8157.2256	3685.7222	-121.175064
He	1.0	16.27816	8.090205	12.582397	3709.697	11612.001	6819.197	21272.945
He	1.0	19.525753	2.6763177	3.2366908	-3034.8647	-1145.9229	2754.4663	2.8232463e9
He	1.0	0.551322	19.808117	8.927889	-7404.757	-2119.7478	128.45439	1.0653027e9
He	1.0	6.514005	11.5029545	16.794659	2401.5933	-2726.9023	1318.8446	109.88819
He	1.0	0.49306518	20.159594	1.5317578	-2144.942	-807.1816	-1622.783	72.45153
He	1.0	22.501936	13.281448	1.7777392	2304.6528	-1890.2755	-7417.041	-602369.4
He	1.0	8.273516	11.404113	11.15031	-5194.615	8377.013	3347.599	-190.47408
He	1.0	0.7444869	7.5974154	23.33508	3845.4236	3379.2573	1312.9943	171.06294
He	1.0	6.5325813	19.640879	21.524364	-7736.4834	-10551.012	-4691.734	63110.977
He	1.0	8.448012	5.032151	5.3670897	-1760.8796	3363.047	-1655.4607	292072.7
He	1.0	17.661045	1.9609286	9.392948	-1792.3608	2473.714	5688.994	-69.26873
He	1.0	13.639488	4.060425	0.7508716	-1898.1298	15773.82	61232.895	506506.56
He	1.0	14.850558	22.894352	14.183258	-8546.912	19218.154	26125.03	838271.6
He	1.0	8.130128	18.689749	9.244068	-2001.9617	10255.506	-3121.2542	717688.75
He	1.0	7.9251723	7.459717	2.3327725	6171.337	31.252636	375.76147	3.3561974e9
He	1.0	16.594786	9.624767	10.409932	1483.108	-1814.5033	-1433.2489	9667.327
He	1.0	10.655156	23.121147	5.431426	16395.762	5401.7876	-42718.7	4.3609546e8
He	1.0	23.301836	4.758233	13.7045145	4403.6567	2979.9858	-3021.008	130842.17
He	1.0	3.5199652	11.263516	5.9101267	-5676.1543	-6222.6943	14530.385	1.1874128e6
He	1.0	21.601162	15.921894	4.993025	-2300.0237	2093.9834	-776.9664	27541.701
He	1.0	10.450814	15.850296	1.7034351	3811.6584	-3001.5083	965.5721	120.70496
He	1.0	21.259113	16.680708	16.514753	3501.6816	-6460.2246	255.11925	-20.983599
He	1.0	17.673094	3.0459142	21.121155	3162.236	-86.31917	4646.275	782921.1
He	1.0	5.0567403	13.069231	5.0298023	-21378.709	58.6762	-9606.183	2.7128914e9
He	1.0	21.269627	22.700985	0.22506821	-792.5589	3808.5369	2773.437	6.962393e7
He	1.0	21.675611	19.340763	0.8314133	29152.268	2766.7432	3321.2795	4.9489072e8
He	1.0	3.699108	22.56352	19.811155	6064.2974	-5025.6035	714.85	434.1749
He	1.0	13.181243	6.327545	5.6674395	-1465.6415	-1879.3297	-1077.3186	2.2149028e6
He	1.0	9.386217	14.932705	13.468609	-6679.679	-1446.1805	-722.4036	7.155902e6
He	1.0	4.7380533	1.0895422	9.016692	-1756.991	2913.2686	5721.874	-2.9476562
He	1.0	8.501609	8.956368	5.8781385	7128.243	-4048.4	3557.5698	-181.86664
He	1.0	18.205902	21.844387	22.263393	-28297.295	42974.06	29914.064	1.7838848e9
He	1.0	11.862893	20.541632	10.567854	13570.625	-2551.2441	2266.7786	-2.1179418e6
He	1.0	7.0287695	18.560736	2.43706	2211.0698	-4941.3413	-353.80814	-23.387037
He	1.0	16.266817	12.747441	16.122877	-5469.2773	-1946.9478	1195.3456	84.02572
He	1.0	22.584408	11.33807	1.0743719	8841.378	2794.5837	-4292.6123	-837658.56
He	1.0	15.484257	2.6643307	14.418971	1783.9197	-2601.929	24.166641	140464.62
He	1.0	3.6083097	6.4716086	14.165416	1017.04645	-2082.693	1289.9756	176953.45
He	1.0	14.223973	14.122475	21.689594	-2571.7473	1562.6484	-52.19667	1.9740915e8
He	1.0	17.40391	10.090075	1.1537488	7952.181	1524.3932	4842.614	-1.07637e6
He	1.0	4.5032463	18.225248	19.118628	3431.0876	798.6551	-8.081126	-10.467059
He	1.0	19.298496	20.647448	4.308095	7347.94	-455.9712	850.638	673622.0
He	1.0	23.937353	12.876749	4.4979534	-2665.44	-377.82138	8463.293	37.654167
He	1.0	7.214196	14.946196	6.959044	-12073.841	958.59143	46959.78	70267.79
He	1.0	4.132944	22.659456	5.861075	9175.452	-10121.929	31.466303	490370.4
He	1.0	4.865339	6.5467043	12.532589	-3598.0232	4629.5522	-2461.5068	6.500462e8
He	1.0	14.918263	22.328869	8.107555	30331.717	116942.38	-44507.355	107968.305
He	1.0	13.47049	1.7813848	15.070438	-3713.3772	2499.9077	-7070.1616	2938.1748
He	1.0	16.821445	1.3143951	0.80749196	-4187.683	3233.239	-4616.6367	167122.45
He	1.0	18.354404	6.1506476	17.291042	219.0472	4009.8533	-4357.824	700922.75
He	1.0	18.369074	16.241053	9.646634	-2055.467	6388.23	3808.49	502836.75
He	1.0	14.301268	18.754444	18.853481	10388.914	-2018.2839	-842.6664	140042.16
He	1.0	15.11681	9.449384	4.3990426	-4714.6416	-3312.2112	4966.369	86910.69
He	1.0	17.882519	4.8166213	11.98155	5248.3037	-4577.5005	-2006.6025	3304.0906
He	1.0	9.839824	17.691559	16.717678	3974.778	-605.9368	-4476.1147	2.4865235e6
He	1.0	17.266483	20.828545	13.099885	14132.429	-21192.049	-17539.97	4.0996344e9
He	1.0	11.775534	6.984491	23.699827	-2067.3462	852.8449	-322.43887	124.4709
He	1.0	0.6755409	7.3054123	6.8513737	2399.984	-3622.3577	-8311.736	2.0189276e9
He	1.0	4.149372	6.868695	16.841183	-2825.5134	-7829.232	-1852.3235	-367845.6
He	1.0	8.379367	20.978153	17.11459	-751.6654	729.2105	53.98706	34266.69
He	1.0	16.935888	0.9948783	19.978548	-344.72498	-11333.707	-5660.4277	2.1175772e9
He	1.0	2.5747957	3.997146	5.160971	-2765.1191	1583.7379	892.7969	1.2351196e9
He	1.0	4.562957	12.125615	10.929142	1967.394	2759.8914	1165.4803	266304.2
He	1.0	10.618269	5.0624013	3.7358868	14494.129	-32567.574	-89532.22	627883.75
He	1.0	7.9505816	13.148054	15.047687	4845.9077	6043.0986	-1542.658	2.1378462e6
He	1.0	6.1635966	14.534308	18.649422	-6228.7314	-117.01866	-2404.3608	1.767878e9
He	1.0	10.053446	3.477718	4.7943974	-5098.504	22288.352	-42493.79	191833.3
He	1.0	6.870646	14.749646	1.8417802	1372.4922	-3401.4485	-3354.6863	708640.94
He	1.0	6.651355	17.4434	22.25945	3129.6128	-4018.9512	-21245.865	14634.702
He	1.0	21.3906	7.5964775	23.138784	29298.594	-73276.75	-45504.465	2.9714278e9
He	1.0	18.572344	18.504553	7.045989	8176.0186	128351.6	-8534.88	1.2986671e9
He	1.0	10.702869	20.128988	14.098521	330.2122	-7738.5127	2852.4863	-31.146612
He	1.0	0.96859187	3.6813776	12.950973	-1339.0282	-2710.942	-3920.3281	-20.630482
He	1.0	19.72413	1.7634599	14.451831	394.90848	-1231.9293	2246.363	204.93219
He	1.0	17.605183	21.193949	17.347492	3347.4185	6652.412	3898.816	5.123869e9
He	1.0	23.134045	21.537928	2.3020823	6571.114	3716.206	5615.5493	305881.7
He	1.0	12.902647	3.1244748	13.562055	472.70782	1966.023	-850.09326	8.318386e7
He	1.0	2.9905932	13.844757	17.78587	2773.645	-1108.1129	-236.34808	97.44985
He	1.0	0.35500818	17.806175	2.6979744	-5374.0845	-5192.336	-893.75494	99549.41
He	1.0	18.365532	9.967751	15.958278	16701.916	-23692.254	13194.439	133637.42
He	1.0	5.5559525	14.4220495	14.690187	-9329.756	534.1011	-1294.8533	342291.56
He	1.0	17.086245	0.9321784	15.581279	-1528.3354	-2546.3562	2862.7373	145191.44
He	1.0	18.933994	14.521177	5.9595404	-11205.433	4707.2563	-2757.7776	9257.187
He	1.0	20.948679	13.03804	23.36023	12655.744	-11078.532	-7634.9487	9.8709574e8
He	1.0	18.207878	11.529357	23.35655	-1437.9037	-1235.1323	-3185.6384	238.32152
He	1.0	0.5303147	16.28643	22.842693	3766.1697	-8013.7627	71878.03	456233.94
He	1.0	23.5021	18.525831	10.021646	4381.5117	869.9968	8259.53	-206.91597
He	1.0	12.835817	11.537882	21.534113	-4366.903	-868.5728	8450.161	1.5711824e6
He	1.0	0.029251037	23.760588	12.826313	-2334.4363	-4108.1733	8331.037	1.545776e6
He	1.0	17.984781	19.279934	8.781901	-431.44397	-34277.684	26752.771	559658.06
He	1.0	11.6517105	22.155148	16.982384	-2276.7932	-1076.696	1825.1084	43.589508
He	1.0	12.481898	6.407267	11.219982	2889.3865	7368.851	169.4377	-682030.2
He	1.0	3.364873	11.381488	16.483818	-247.4343	2060.298	-2832.476	197.06972
He	1.0	15.414988	15.260461	10.25409	3208.678	3743.0637	-6515.6094	-428356.94
He	1.0	1.0780203	1.7535067	22.9375	14566.932	-34228.184	12096.003	289120.25
He	1.0	16.73387	3.3435848	5.6858177	2291.5376	-1042.3301	3697.8848	1954.8468
H	1.0	15.91389	3.3634462	0.6000205	78043.375	669817.9	-382906.56	-4.738817e9
H	1.0	6.778398	12.8926115	5.9993944	142062.05	-167274.72	-277197.25	-500177.8
H	1.0	15.919974	7.1275544	5.087792	-130038.26	-141548.1	-132681.33	238452.94
H	1.0	7.735162	18.637472	13.352163	-20288.049	-66709.1	415927.56	159850.78
H	1.0	21.98588	4.10824	5.569391	-64470.99	338102.4	-67598.48	1.1855272e6
H	1.0	18.14114	23.751358	23.833012	125640.0	-596386.1	134778.97	-1.8699619e9
H	1.0	20.232328	5.4223046	6.229358	-230488.98	-133409.11	-158165.92	4.3937558e8
H	1.0	19.816614	6.90747	9.228434	86676.85	-364362.1	577419.3	-1.01370675e6
H	1.0	19.954525	10.565118	2.3339047	395960.9	-39551.582	184436.75	-7.209208e8
H	1.0	4.897818	10.080352	18.621069	32698.193	-174659.08	-100763.77	1.04935814e9
H	1.0	2.632085	15.67606	22.912807	46067.97	-214980.89	-392708.75	-855058.2
H	1.0	5.0043263	4.403203	8.548658	202191.61	-108240.81	-144852.4	-5.0390746e8
H	1.0	3.547657	2.6360435	23.73671	-100148.055	87626.91	-141873.2	945475.5
H	1.0	6.536661	11.0324745	3.4792051	-167815.02	87223.77	12347.071	144913.08
H	1.0	10.754232	1.9144646	19.160128	-549036.8	-387095.88	128941.29	-4.141699e9
H	1.0	2.3813164	5.470271	15.911458	-433489.44	33071.703	20272.746	1.06635725e9
H	1.0	2.9806538	13.73908	22.434216	-141225.73	245920.02	64321.27	1.0706098e9
H	1.0	2.0490398	11.161925	4.5019784	180982.28	235952.53	-202896.69	-100597.72
H	1.0	16.36274	6.437407	20.701086	83685.07	105744.89	-382117.12	-2.367581e9
H	1.0	0.6618091	7.5670576	11.864402	179649.08	-18812.094	-355473.66	44781.566
H	1.0	11.482042	20.39166	4.0008874	262591.28	-79887.29	-42113.332	415611.12
H	1.0	12.2524185	22.666525	6.898876	-241256.39	-66722.164	-288676.75	-5.0010445e9
H	1.0	5.717685	0.8324671	18.611958	407022.16	-141645.31	32229.89	-1.01887334e9
H	1.0	18.507462	13.147625	4.1348424	-252395.08	612588.0	377002.88	-1.5423951e6
H	1.0	4.7047505	20.637419	21.761341	-287070.28	-38364.207	-175256.75	1.4498258e9
H	1.0	20.276632	18.20209	3.667821	203008.83	455830.34	-201807.73	-380855.84
H	1.0	15.536693	7.4077644	2.7509706	270804.7	354493.44	74175.82	-231822.34
H	1.0	20.86765	21.308144	14.343375	219623.52	106377.47	-204699.5	2.9971412e9
H	1.0	2.4839687	21.922712	13.809857	94717.56	-312761.1	471462.62	-19456.469
H	1.0	17.659348	6.7563033	1.4645222	-144060.03	-114970.84	-33041.977	2.5104189e8
H	1.0	11.036074	19.24447	7.316854	48233.965	-80033.37	-149948.16	-221957.25
H	1.0	0.356265	16.77039	13.567593	17609.258	-105549.41	-231191.48	3.5837834e9
H	1.0	1.8767685	23.818789	22.939947	-396773.28	385930.94	79451.91	563531.5
H	1.0	21.510206	3.8281898	14.035075	392087.1	89828.586	303533.2	-322478.38
H	1.0	0.045812074	8.057017	9.273995	245135.72	-359685.34	269953.3	-2.1057842e9
H	1.0	7.050264	5.185196	7.2580433	105492.03	-188813.38	571243.8	-6.1803923e8
H	1.0	7.922547	1.7586033	19.68104	-226179.03	-81500.07	-2814.4065	2.1423388e6
H	1.0	20.339552	18.177155	23.5993	237522.73	-29387.43	289967.66	-4.764621e9
H	1.0	16.449135	19.560175	17.957802	134548.12	102511.695	10937.64	2.3526525e9
H	1.0	20.810694	4.8986197	2.4231515	155523.36	-55895.7	-31760.916	1.1094898e9
H	1.0	9.808827	12.968028	14.129519	126156.14	-210072.83	-35926.492	348315.3
H	1.0	0.80462176	13.061457	17.821182	503850.28	-108846.9	41010.38	809390.3
H	1.0	12.76404	16.76432	21.009232	-123471.586	256537.08	-114276.46	4.7887974e8
H	1.0	14.543102	17.093966	6.824615	162295.19	67349.8	90573.98	-988319.1
H	1.0	0.11732617	0.18165343	3.1092436	26343.03	-37773.598	-265916.94	4.33068e9
H	1.0	15.699786	3.7071943	18.217731	268018.4	-133185.69	-334216.03	-1.1824754e6
H	1.0	21.18926	6.4623275	21.310368	139015.16	252017.53	578616.7	-373872.75
H	1.0	20.77231	20.810768	2.0433595	187126.31	31455.969	-506920.7	1.7684727e9
H	1.0	15.195585	16.465828	15.921632	173666.34	-498335.62	883558.75	-1.2199333e10
H	1.0	8.190226	23.473513	1.6325595	356680.2	278756.78	343721.12	-3.1093698e6
H	1.0	4.091522	11.246888	12.785109	122761.98	117296.76	160635.39	1.5101476e6
H	1.0	0.28768772	17.85903	8.100388	125809.01	-52643.527	403995.22	-603051.0
H	1.0	19.730082	16.138796	18.993677	254546.12	97696.25	83204.36	58985.242
H	1.0	8.080503	7.0885878	16.819868	-331695.44	164456.75	216300.52	-216378.9
H	1.0	18.679825	18.01146	13.129289	362188.5	-16365.284	-24718.367	416603.44
H	1.0	24.018673	23.853159	22.267033	384029.0	-70083.62	61166.188	-17995.781
H	1.0	4.488257	17.744709	2.8795798	325004.3	947717.4	-207900.67	-2.2165025e6
H	1.0	2.783189	15.987041	12.444787	24145.865	369663.28	193512.28	11355.387
H	1.0	14.118907	1.1033821	17.286692	-13881.345	-427501.03	676852.7	-3.3837806e9
H	1.0	16.951555	17.157616	17.087786	230510.55	414273.34	188274.47	246321.72
H	1.0	4.988365	8.9329605	16.163809	98746.96	-254307.14	36043.79	322009.72
H	1.0	20.714256	16.413836	0.95592237	458841.22	51925.957	16498.223	-4.3448494e9
H	1.0	19.656067	12.815628	10.47392	64130.84	232223.62	-25270.81	13319.4795
H	1.0	24.0027	20.587301	22.131117	304757.06	-184956.6	-335443.72	-545996.44
H	1.0	3.947256	15.078218	5.510495	-224986.56	-239821.03	-134341.22	747626.9
H	1.0	19.061964	14.36488	9.468804	116564.016	-73155.91	138596.73	-3.8442386e9
H	1.0	22.851198	21.859016	12.28444	48196.434	-87649.38	55749.76	1.0005803e10
H	1.0	17.910988	13.353427	14.815263	-254898.2	272291.8	144232.66	-283186.47
H	1.0	4.047133	20.94732	3.4295583	-417780.6	-242040.89	-51527.168	19536.72
H	1.0	2.3163552	9.850507	11.947539	348061.4	-793576.25	-146991.14	-1.8694609e6
H	1.0	18.04368	3.3327386	18.278069	-70117.15	73699.02	-607506.2	72887.625
H	1.0	9.20478	21.390587	20.598215	-421204.16	128013.52	351130.28	3.1335968e8
H	1.0	18.708574	1.9142914	16.616032	-432877.25	173156.5	140555.84	-858234.9
H	1.0	15.40681	10.898124	0.20251217	318202.06	-106886.58	-180578.05	651794.1
H	1.0	10.877596	7.3689394	12.866306	335599.22	487882.53	219374.42	-428187.7
H	1.0	18.020147	15.514437	1.4939439	-388692.5	213340.98	109916.1	-316520.03
H	1.0	4.904025	21.811481	17.083303	-656451.1	-138435.34	-278643.62	-7.955651e9
H	1.0	20.011742	10.962995	5.273843	-389917.16	444608.84	-18113.004	-2.7370135e9
H	1.0	22.12449	6.334013	9.1874075	71872.48	-520922.25	-18727.426	391319.0
H	1.0	9.097366	0.44316378	5.826903	-98408.08	-149707.4	350694.62	-4.96325e8
H	1.0	14.304559	7.2099624	0.5219325	249482.3	-91868.37	715156.4	-1.1219434e6
H	1.0	13.115858	13.942674	16.962738	404468.9	-43029.965	-237311.84	868652.1
H	1.0	0.33726594	17.782122	16.893402	-351949.66	-189844.89	26646.031	-3.421282e6
H	1.0	20.012365	19.758621	17.89227	-286097.0	20071.846	-281473.84	-3.1059622e9
H	1.0	15.849984	8.232237	8.990497	-364915.47	-227179.88	-362245.7	-472882.12
H	1.0	8.632445	22.168318	4.984146	529827.2	295798.0	-76738.49	-6.5275054e9
H	1.0	7.519794	18.748821	16.622711	203858.05	-103391.47	6552.8535	451319.9
H	1.0	4.5952215	14.027167	11.7198515	444170.12	-409999.0	-270406.3	-1.7220989e6
H	1.0	22.033392	23.294674	13.840682	362524.22	-20278.928	206765.4	-445804.28
H	1.0	5.338337	4.3247766	11.766391	459801.5	-246243.84	292593.97	-4.790687e9
H	1.0	21.286283	11.643056	14.10303	-382949.94	-14812.157	-82659.88	3.544057e8
H	1.0	10.7173195	0.24807169	20.710365	123154.26	48692.707	630876.1	-3.3119237e9
H	1.0	15.556718	1.0601687	12.940668	-163608.52	265681.9	-121414.41	1.4542605e6
H	1.0	8.756889	4.189535	22.676884	48494.543	-184995.72	-77692.43	-6.1619297e9
H	1.0	16.29846	3.8385038	10.5989065	-507765.38	213017.81	-125720.2	-1.0539118e9
H	1.0	12.592169	1.7582675	3.1255062	343176.44	359567.72	264824.6	-1.4070002e6
H	1.0	6.5452213	14.81287	20.791573	-736790.25	279958.97	-21684.672	-1.0579479e6
H	1.0	11.324824	14.0988035	19.372913	-137758.39	-177236.72	-24180.14	5.837875e9
H	1.0	6.282669	5.9919667	17.4024	321010.1	-508938.88	-405258.22	-1.9682942e6
H	1.0	8.386464	12.494101	17.140553	-106875.34	400448.2	-100644.01	4.508807e9
H	1.0	23.28201	12.051175	18.781805	-428359.4	602186.44	77658.35	-598740.06
H	1.0	16.712824	14.691306	19.196278	-315583.0	6665.3447	-190760.75	-1.2756696e10
H	1.0	16.350935	1.6849588	4.5188184	-258593.5	16904.674	-315197.16	-31395.934
H	1.0	14.386784	19.474375	16.9046	-320503.25	-112411.85	291576.0	-304793.75
H	1.0	12.859578	18.846947	12.970026	287332.25	-252981.98	-38870.707	103753.98
H	1.0	16.194813	19.133911	12.896586	-120246.7	-74775.77	-209692.05	2.9502979e9
H	1.0	2.088954	7.8532414	2.096755	18609.74	-445197.44	-93828.73	-1.4936372e9
H	1.0	10.614223	10.856413	0.6990763	266922.0	316235.3	-24255.307	6.757757e8
H	1.0	3.500887	20.427868	19.618456	238011.94	496076.38	-154623.75	301822.5
H	1.0	17.248243	8.893838	14.398191	284460.5	59319.938	15699.103	2.6618179e9
H	1.0	0.2614384	16.510809	20.919178	201888.66	-464836.6	341616.9	-639737.56
H	1.0	1.8798771	12.109749	10.762727	-138741.7	-410423.78	385668.47	-1.7297906e9
H	1.0	18.40677	6.9325347	7.39743	-4554.32	311421.88	19462.639	-1.7316867e9
H	1.0	21.544905	20.523561	19.612165	77155.016	38784.53	524278.2	-322946.25
H	1.0	7.125001	16.473478	4.2391043	318557.22	368980.72	-151354.14	-1.8944094e6
H	1.0	19.618324	16.970676	20.810568	-1.1378038e6	-28626.684	-140090.27	-3.9149458e6
H	1.0	1.5963274	14.399191	3.4711866	64088.156	-177456.44	401646.7	1.7112136e8
H	1.0	16.962265	8.319191	6.807842	-332445.34	6751.826	-398862.22	2.7891456e8
H	1.0	0.34122077	12.497452	2.395546	204230.6	229074.92	111223.664	-1.826017e8
H	1.0	0.9943285	10.981246	18.450472	195536.44	-488336.84	-160428.53	-328898.9
H	1.0	20.640566	1.7698028	8.423215	-151876.38	287992.75	806781.9	-1.734777e6
H	1.0	21.524677	2.983434	18.14646	104560.25	379319.25	86779.79	-2.149577e9
H	1.0	12.772555	13.206632	10.294082	387191.3	-239886.94	46647.555	-318564.12
H	1.0	5.9170995	9.445143	20.811407	-217142.06	-139289.2	-86751.91	3.8136758e8
H	1.0	13.983681	4.3079824	21.469572	102019.234	-87076.88	325260.3	1.1925162e10
H	1.0	8.358488	16.389393	1.4459119	410800.9	527986.5	356347.0	302332.12
H	1.0	11.956649	22.356684	20.628418	38737.836	425619.3	-120126.19	2.039827e9
H	1.0	15.427741	13.71773	4.2853184	-229041.72	-508671.25	-602573.6	-1.4535936e6
H	1.0	5.4587636	15.569091	22.370005	-139966.0	122249.13	-260796.75	4.8151276e9
H	1.0	12.110841	8.812647	4.6036096	96035.35	-302155.22	-59061.93	4.9857946e9
H	1.0	21.712172	5.578029	15.467559	758771.06	-2472.586	-328780.8	-1.2773345e6
H	1.0	1.2512628	6.1714993	14.008304	80995.18	-187764.8	27180.568	-9.576174e8
H	1.0	7.0681567	18.3244	5.706586	-448307.8	-10146.027	-13594.239	-3.9490796e9
H	1.0	11.459862	4.469292	20.324484	-202804.92	-430666.25	177325.6	-8.923257e8
H	1.0	20.800022	16.651407	11.632231	349708.53	216730.44	-118728.03	-274989.3
H	1.0	6.561472	11.500839	0.5853978	-322467.7	63628.66	-423971.72	-2.8727854e9
H	1.0	14.964216	23.198551	5.595252	-248399.58	-88740.79	-15610.352	1.3324223e9
H	1.0	6.5077868	10.781138	10.22972	409310.0	-42607.066	-40704.688	-725373.94
H	1.0	19.45583	23.095139	14.076011	-389700.22	-527669.2	329448.6	-8.576719e9
H	1.0	14.234806	5.8563285	20.175941	20528.953	-88264.75	-282380.06	-4.3212534e9
H	1.0	6.143106	22.509272	23.40822	157360.08	-103306.78	-122437.09	1.7321034e6
H	1.0	8.263622	23.668768	14.071988	-315924.56	124622.35	-544090.06	-1.4067242e6
H	1.0	3.5435393	11.857391	20.231743	-73974.94	228502.95	92197.84	-870628.94
H	1.0	13.195503	9.175916	6.3724537	410955.66	-22748.223	448748.3	-3.9549437e9
H	1.0	14.651631	9.242386	20.030195	-236710.22	-99322.62	-40156.777	-282898.22
H	1.0	23.706118	15.214742	4.9754148	-262690.94	15534.861	-673388.06	486984.25
H	1.0	0.15173228	4.9024005	17.868402	431438.6	130542.99	222887.55	-271374.28
H	1.0	12.164402	13.703409	22.270565	-273976.56	-431816.16	127593.11	397841.3
H	1.0	23.544596	21.52502	5.6585884	-402640.44	-172126.23	-74598.66	-7.3410995e9
H	1.0	1.0804473	2.4719272	4.607026	9881.661	-218122.73	-144575.47	4.2893432e9
H	1.0	23.671215	6.8997617	17.082172	232796.48	2209.6978	-261449.77	785362.75
H	1.0	4.4922876	9.5927	6.852234	62103.64	367466.88	-14689.742	-121804.836
H	1.0	14.063527	20.488361	19.958597	-23784.975	-17889.37	469721.1	-460987.53
H	1.0	16.197742	11.033531	20.411854	219180.52	316440.2	221306.25	-306683.7
H	1.0	3.8395164	13.788084	20.050278	-204764.5	243416.73	-370511.66	-8.677232e8
H	1.0	21.8687	20.960175	4.107437	-258093.11	310748.38	-355503.12	5.9919044e7
H	1.0	2.326859	4.547401	11.509211	102131.7	-849945.06	-103512.3	-2.6874535e6
H	1.0	22.639578	14.800382	3.2887526	127833.23	-25925.387	-344853.8	8.3655526e8
H	1.0	13.768694	11.518525	9.568657	-434861.9	541891.1	-369919.56	-948217.1
H	1.0	7.9567294	0.3287788	3.999143	-253176.66	-264674.84	34145.176	171662.95
H	1.0	20.983305	22.281	10.197039	-146454.45	-91979.01	334101.88	-9.422926e8
H	1.0	20.085064	10.578923	16.934225	-32792.367	288909.72	130460.945	50754.383
H	1.0	22.696281	15.987006	9.70923	-403777.3	-283498.66	546135.7	-897391.8
H	1.0	4.810881	3.5486681	13.711428	-386120.3	-105373.27	-432755.6	-3.47314e9
H	1.0	13.080276	23.928064	13.740098	-289933.2	-232002.84	384500.38	-584147.7
H	1.0	12.284701	15.753755	0.4605895	-272886.06	16097.187	132924.14	510692.8
H	1.0	9.366925	18.32941	2.2305655	-393048.28	-353044.94	-487194.84	-4.2146816e9
H	1.0	0.9556977	14.736794	7.8076468	-420163.8	499358.62	-223801.45	-3.9050698e9
H	1.0	12.925904	23.296858	1.1871802	45683.41	462459.72	301181.12	495696.6
H	1.0	12.659067	11.725718	0.6584671	-126467.53	117808.766	375180.47	422393.1
H	1.0	17.362738	10.440525	5.2907157	-580682.44	-211714.38	-314299.4	-7.1856394e9
H	1.0	1.0784719	23.270866	1.4485847	-40792.094	-27838.06	26256.316	281424.78
H	1.0	14.288392	5.031573	11.149897	-384919.7	-108987.805	310818.88	-404129.5
H	1.0	18.159683	4.9471464	2.7819297	206939.67	357273.53	-123177.02	-275839.47
H	1.0	16.373833	2.399625	2.5029998	225246.42	-310025.2	-48523.27	-273351.44
H	1.0	17.093472	11.725336	3.0246394	207155.64	-145864.48	295623.03	2.543264e9
H	1.0	23.250916	11.967635	21.794533	-139892.81	105908.12	715425.06	-8.2823393e9
H	1.0	18.061611	23.508394	3.7587535	-258684.77	-269942.38	149206.45	-2.7302205e6
H	1.0	7.0931416	14.6678505	10.89984	210494.73	-10119.927	-235663.02	1.2020673e10
H	1.0	19.619463	3.9809272	19.86916	-51455.676	301778.12	320616.53	269913.06
H	1.0	16.200672	18.671421	8.124518	-215223.42	2449.2205	-284777.94	-570782.0
H	1.0	14.426655	19.575861	0.80559015	119993.15	-342408.44	-469326.12	-2.1444594e9
H	1.0	16.442495	22.953705	21.428514	275718.1	272737.03	31593.262	71803.16
H	1.0	8.134084	8.914652	23.283129	94049.31	45688.332	117244.055	3.4815316e9
H	1.0	22.96263	9.322891	7.974331	151301.08	216973.11	-230946.75	6.829065e8
H	1.0	23.76439	3.9890273	4.2995796	442984.3	150306.6	332297.53	-92845.82
H	1.0	20.940668	13.660973	21.17318	77559.766	93576.2	-540854.2	-8.300095e9
H	1.0	13.574696	2.1687248	4.856261	-41548.97	-140800.77	-58194.633	3.84665e9
H	1.0	17.668182	19.616432	10.982652	532637.8	3133.4587	-117659.89	60515.367
H	1.0	15.662385	20.428503	23.297161	-180887.38	231278.19	-131486.25	-6.285664e9
H	1.0	5.292844	11.990298	14.473884	-72659.445	-39135.535	84764.59	-2.1880246e9
H	1.0	10.786221	3.4895759	13.66731	-384632.0	-241861.12	94591.805	-117326.6
H	1.0	8.867731	11.068122	14.20789	-161980.27	136098.77	-205962.94	1.5209094e6
H	1.0	13.024704	10.647225	12.088632	204524.7	133930.73	-609228.56	-981482.2
H	1.0	9.293332	13.776356	10.551806	258479.44	53323.844	-354581.72	2.515216e9
H	1.0	1.5806925	17.49111	0.6155981	185242.14	140241.3	-139615.12	292441.4
H	1.0	19.953058	22.860727	22.273119	-196575.6	58321.75	222891.19	-111356.03
H	1.0	5.4101343	12.4234915	19.084883	-84604.49	-238001.16	1026.8757	303755.6
H	1.0	20.480577	9.497389	13.311449	-111975.87	87595.39	206937.62	-3.7860257e9
H	1.0	12.95063	9.063619	23.491568	-27368.096	-535461.56	-263841.22	-2.4790822e9
H	1.0	0.38925314	3.4669898	22.210426	-564596.9	49323.82	131971.17	-1.3300579e6
H	1.0	24.016676	2.398989	2.8368816	-218131.34	167852.86	-114717.52	-1.4276115e8
H	1.0	15.435834	14.144762	17.546934	97815.16	-62143.75	520745.34	-9.802422e8
H	1.0	21.176994	1.556856	12.925972	-423602.1	-136614.42	50719.082	441377.84
H	1.0	17.31019	14.341622	7.472327	9878.043	-309819.84	-451366.28	3.0751875e9
H	1.0	10.491503	11.317296	15.779249	76836.195	-165145.94	206813.7	-91056.41
H	1.0	16.378546	20.562416	2.9959548	239154.42	-138950.95	-49115.445	2.0965888e9
H	1.0	11.419847	0.27089816	9.073658	-324421.34	-221661.05	-111313.93	-2.3358508e9
H	1.0	3.1260068	6.5899925	8.366106	-13305.094	-504687.66	-46369.918	-685952.7
H	1.0	12.539508	13.854257	1.1372421	-215317.25	-186080.45	-244757.47	85818.92
H	1.0	0.43871567	5.0234976	6.0967383	413174.62	200902.42	155346.45	805072.75
H	1.0	0.42944658	7.8595076	19.598003	112692.0	162670.03	262011.36	-586222.6
H	1.0	7.8616433	22.03622	8.905881	150699.45	-140762.36	3246.66	1.59191e6
H	1.0	11.754941	8.747685	21.652811	77006.11	-91884.25	-372692.72	169613.17
H	1.0	22.820536	9.608421	10.385207	375461.2	-239875.03	124069.61	232541.9
H	1.0	5.8698254	2.376331	12.267027	-538409.8	127002.08	132864.62	-3.6464335e9
H	1.0	17.52208	2.623572	23.16486	615523.44	110851.195	356030.97	-1.567115e6
H	1.0	9.977469	22.764397	7.2743664	-170022.61	4419.4907	-32677.727	1.3377102e6
H	1.0	2.553383	12.940224	2.43728	-283073.88	582427.6	-408816.03	-360319.5
H	1.0	0.3084333	3.714646	1.3942442	-773.7809	-143170.23	-85525.16	-430594.34
H	1.0	21.306696	23.927515	11.562469	105649.58	310523.47	-253308.4	-1.548763e9
H	1.0	13.478931	3.2316234	23.026424	-231827.45	-239268.48	-92945.98	-3.8409866e9
H	1.0	23.288877	2.7418213	7.547686	-350714.56	-444209.66	-494179.06	-906112.6
H	1.0	22.758028	15.279745	6.8410206	320105.8	-403536.12	-92155.65	7.6139116e9
H	1.0	2.2364018	4.035809	0.085620604	253260.34	461624.78	-40508.19	-1.3569019e9
H	1.0	19.214352	15.82498	4.384128	110194.086	-24056.729	224224.64	1.2680242e10
H	1.0	22.29428	0.42549035	23.702421	96492.695	213547.98	461614.0	-1.4751582e6
H	1.0	22.926928	12.667293	10.0877	226205.67	-272741.88	-276482.28	318737.62
H	1.0	5.519758	18.593424	9.889003	-170390.53	203087.53	-123935.59	820256.4
H	1.0	18.50828	20.163713	23.990446	66237.516	-414001.1	-693104.7	-1.1785847e10
H	1.0	8.578436	19.624996	18.76429	-355251.75	-225421.78	-266825.12	-237808.44
H	1.0	18.523855	15.759982	11.722796	350158.44	33035.164	16973.387	-716982.3
H	1.0	21.023712	23.754406	8.307467	-117417.445	104646.63	-133644.53	110385.086
H	1.0	0.7917785	17.95097	11.706834	609812.44	467007.9	94070.42	-1.4102788e6
H	1.0	15.565317	2.8430943	8.611213	-77998.76	-298392.16	-417182.6	2.2369044e9
H	1.0	18.325115	2.5018377	1.4884578	-198203.05	-112679.23	-291620.5	-1.6826657e9
H	1.0	4.7457147	10.816766	4.3897953	628445.8	427019.62	-262567.5	-1.4477152e10
H	1.0	8.367563	7.0501895	14.178707	-130533.734	-303508.2	74167.0	-661953.1
H	1.0	0.09983049	19.756996	16.802435	-2849.3848	299850.16	-259447.84	1.6658597e10
H	1.0	1.6188124	2.0027773	16.828094	-290945.9	281557.9	-82107.555	-3.639774e9
H	1.0	18.072754	0.5405936	21.722574	405310.16	-124848.6	-105768.84	-6.298682e9
H	1.0	14.0347185	11.710684	16.816586	-11125.155	-229885.03	91056.445	191608.1
H	1.0	19.074085	1.5198681	18.739607	-295973.4	332474.56	-87156.12	8.909033e8
H	1.0	12.505447	18.003899	19.362778	788054.1	-180201.02	-146261.03	-1.0025343e6
H	1.0	19.617964	10.09441	19.670385	-237820.75	159659.14	-260446.34	1.2756569e8
H	1.0	22.86465	6.5281725	24.04874	242990.33	-75064.73	319062.78	2.9162217e9
H	1.0	16.625498	21.313875	14.921584	137210.67	-47941.51	89047.59	-385907.62
H	1.0	9.418335	17.72231	12.791114	-105951.32	287575.34	-15391.565	848949.75
H	1.0	1.3646334	0.5188344	20.861427	287871.56	57785.836	-77725.72	541882.6
H	1.0	10.574066	1.3819153	10.813957	-315306.56	-298829.75	-147746.1	-55549.793
H	1.0	19.454386	1.7784957	21.183115	386931.03	-355253.4	-342320.75	-1.7312838e9
H	1.0	15.204892	10.895877	6.336075	-276920.16	236445.56	272290.97	1.04799306e6
H	1.0	11.984349	20.123442	20.37341	272025.84	-263973.66	-341033.2	4.15036e8
H	1.0	4.526114	9.617885	11.572293	126753.75	365173.4	333274.34	-2.0327666e9
H	1.0	9.728934	17.926023	8.357609	-301416.56	-168960.78	309563.66	-1.2577089e9
H	1.0	12.4118805	2.9856386	7.71884	-124884.53	188414.48	-171375.6	-912999.5
H	1.0	13.822429	10.710245	2.4935913	220260.14	345543.12	-165231.36	-224290.1
H	1.0	6.3345404	21.2291	7.6582637	439630.66	-25521.27	390796.88	294706.78
H	1.0	10.611288	8.347557	6.5679007	-18728.084	309388.66	241624.92	1.0295254e8
H	1.0	7.759204	17.630087	23.907581	-278458.5	485822.8	-59246.97	-926437.9
H	1.0	15.2127075	23.644745	19.428535	277860.8	-277817.4	94731.67	-2.6046684e9
H	1.0	7.4996333	15.023527	14.4232855	-617139.8	292548.0	-29442.023	-1.7431978e10
H	1.0	18.285011	13.370829	22.029594	-382097.84	38179.92	-106267.6	4.2693448e9
H	1.0	7.422372	5.847881	0.3165379	301472.84	-136972.11	206761.58	697851.7
H	1.0	5.0794964	12.103826	8.92001	-183836.19	170468.64	347593.38	-2.7060692e9
H	1.0	2.6291096	5.865256	22.929226	-67452.96	-387488.16	119970.86	1.8875628e6
H	1.0	7.837422	1.8536266	14.006113	-420022.25	250208.7	-245260.83	-865058.6
H	1.0	19.924845	22.173468	16.98916	-93890.41	5.329271	658449.56	-4.121419e9
H	1.0	21.3285	12.948698	19.348461	251246.61	-24592.793	-349252.56	1.5067189e6
H	1.0	11.914884	3.58212	3.2477899	304477.03	294120.3	-184316.73	1.1919407e10
H	1.0	2.6456378	6.125119	5.2501364	-397389.3	-96114.71	-152615.52	-1.514223e9
H	1.0	8.094751	3.2599108	16.62395	-193150.27	-8705.555	259304.53	-6.8618726e8
H	1.0	5.279093	1.8692261	15.1329155	68846.78	535050.7	-65117.082	-316071.9
H	1.0	19.566633	5.938243	3.8220265	300090.3	-347619.72	-32345.98	6.09897e8
H	1.0	13.709325	8.700527	11.1961	-219590.05	-53713.93	-19119.805	-199618.56
H	1.0	16.922647	3.8406386	16.530312	80331.66	-165832.19	-171498.03	686920.3
H	1.0	13.842741	16.040295	18.890907	-35344.562	196244.88	319716.66	-293669.3
H	1.0	16.129368	16.402533	8.08027	-100711.03	76628.336	-222710.58	-666896.8
H	1.0	10.768013	10.42766	19.008146	287236.5	314784.16	-169685.7	601878.3
H	1.0	5.3213444	20.058928	1.9727823	17996.775	-142037.47	-348689.47	332395.66
H	1.0	8.696689	16.868973	18.147636	95052.54	47203.133	458616.44	-430759.12
H	1.0	6.0461135	0.85498595	4.403913	-310788.88	175216.3	253063.33	-2.80444e9
H	1.0	13.597994	1.7484603	20.891186	189134.02	-26224.05	22482.69	-602381.8
H	1.0	3.8669538	19.479029	16.194647	-173987.53	204312.88	-307746.06	-9.8124205e8
H	1.0	20.661283	5.4636326	11.893296	677995.6	433110.78	-41082.043	-5.4289285e9
H	1.0	0.32667023	5.9212837	8.386622	-269993.3	582885.9	470147.75	-9.30236e9
H	1.0	6.5555344	8.710877	3.3711624	-426581.78	-463705.72	-27820.85	-3.1063995e9
H	1.0	19.496058	7.971018	17.877213	411402.0	-105525.01	-50750.062	232683.42
H	1.0	0.37785548	0.67733794	5.5647197	-32648.006	-257624.14	-495536.38	-3.44039e9
H	1.0	2.8978393	12.896544	6.872149	526911.44	152830.1	163136.3	-571983.44
H	1.0	20.23221	12.246756	1.1744132	35972.938	-93215.21	138843.5	4.138372e8
H	1.0	5.659476	20.668823	10.2743225	-43544.38	-493442.0	58370.98	-5.3553078e8
H	1.0	11.3823185	16.184998	18.866602	251056.25	-200519.84	-541174.44	-256360.22
H	1.0	12.242583	15.032975	8.733615	634523.8	-157749.16	-186698.45	-201744.95
H	1.0	22.562855	19.211267	2.9893851	-109297.59	-153287.56	-476498.47	-2.4974246e9
H	1.0	16.306847	5.647424	8.043812	-67608.87	-66353.055	481224.88	-2.1319391e9
H	1.0	16.210005	23.767601	11.547464	400407.5	136797.66	368449.6	-6.833052e9
H	1.0	22.966167	3.5095918	15.700656	-20078.127	-1086.266	245610.62	8.248694e8
H	1.0	9.664888	0.5939184	7.939771	-458947.97	161029.98	307617.72	8.5094216e9
H	1.0	7.8331194	11.749092	2.2720582	-312394.97	244526.66	-227829.94	7.7145866e9
H	1.0	10.78757	0.9292062	0.85702336	-181853.22	-167235.44	-552302.94	-516870.34
H	1.0	14.408614	23.352074	2.885476	-341138.66	122893.23	742286.9	-900838.8
H	1.0	1.255788	14.389519	23.808773	-14959.148	-185398.89	-325907.38	2.803034e9
H	1.0	10.836604	11.513654	20.928167	-7764.8647	-391823.38	101022.96	-1.602719e6
H	1.0	10.776023	14.552313	0.07165491	-226155.03	76379.984	251359.62	884473.94
H	1.0	18.312323	21.406538	6.6006155	416299.38	12794.76	293674.97	-4289.2754
H	1.0	21.81723	17.333117	20.423203	-119918.14	-214141.8	-219681.4	869098.06
H	1.0	10.928506	3.654207	1.1671755	-175083.3	-37662.41	290458.53	940931.06
H	1.0	22.86885	13.960989	12.312705	236832.81	333311.56	-187565.11	-1.565783e9
H	1.0	6.9421973	16.969746	11.23019	-93902.445	-13534.3955	-79119.234	487415.6
H	1.0	5.2208853	20.298119	5.726419	-370981.1	-341547.78	160782.89	-469013.44
H	1.0	17.382381	11.319731	14.910027	106395.336	-229232.16	247636.97	2.3359014e9
H	1.0	12.747002	17.007694	17.302637	-72572.625	255283.34	610202.0	-663860.25
H	1.0	11.22892	16.705656	10.12336	-79035.016	92934.55	187427.62	459556.03
H	1.0	22.088877	1.4385616	9.903187	124430.24	-14269.853	309568.0	1.4204748e9
H	1.0	12.282776	15.876979	13.862429	-313357.72	-65662.51	346543.6	-1.8917659e8
H	1.0	12.824045	7.011945	19.123856	-170498.1	108212.69	-165385.44	2.2295903e9
H	1.0	7.1003685	1.8855737	6.6499166	32244.834	-225889.28	-264823.66	-1.1708658e6
H	1.0	16.092854	20.760506	10.492609	-367916.53	-329357.94	-349848.78	-1.773291e9
H	1.0	4.2084	17.057356	23.845354	-221723.1	-363049.34	-175265.11	-2.0356384e9
H	1.0	20.712328	7.379413	4.616931	440039.3	74832.8	-44342.562	-220573.6
H	1.0	19.302397	1.915465	11.382838	-124680.055	263709.75	9785.23	-1.4197425e6
H	1.0	4.05687	4.7721863	6.658817	63923.746	-63067.47	85040.94	3.6871928e9
H	1.0	15.5867815	16.71018	13.308405	117520.94	-207184.11	37685.977	384431.8
H	1.0	9.283403	2.4173186	23.882042	35273.023	162186.3	-317978.1	1.1550319e9
H	1.0	19.45266	20.902655	19.351822	-191927.73	-454730.75	242439.88	1553.1403
H	1.0	14.749363	10.681748	22.137133	-620475.06	-110374.76	94317.29	500917.44
H	1.0	17.245234	11.1862545	11.707378	52563.707	99941.195	-174541.19	3.6863455e9
H	1.0	0.3723398	5.1684847	10.9150915	145503.58	233667.5	182448.8	125958.555
H	1.0	11.8554735	5.3802	18.538366	-87003.77	164959.55	-601824.25	82020.2
H	1.0	13.337667	21.736885	23.715454	293933.9	-273706.47	557053.44	-3.131241e9
H	1.0	0.025509926	8.074592	15.342378	165954.12	-201466.69	-351669.28	-6.489176e9
H	1.0	24.044302	19.73439	4.981636	276720.47	59729.555	-158294.55	2.1177748e9
H	1.0	7.2733464	13.849407	12.692502	-127541.305	129140.625	494338.75	-1.1308493e9
H	1.0	6.1318088	16.550661	19.048038	-51600.63	-167550.3	-140008.58	5.4874757e9
H	1.0	23.965199	9.996019	5.498517	-69118.9	-382877.72	248210.3	-1.2002267e9
H	1.0	16.225832	17.64433	3.9460824	132681.3	-29885.342	33678.71	7.304919e8
H	1.0	17.10548	17.317717	11.015168	-254610.2	-676475.75	-260605.48	-3.747106e9
H	1.0	22.273993	0.3497719	4.450842	-144944.92	201797.86	-360717.53	-2.122239e9
H	1.0	9.229439	14.883047	18.577208	579284.3	-140883.64	297485.56	-686878.9
H	1.0	8.401549	3.8840623	1.0758976	134060.5	194761.94	-186775.14	4.2026107e9
H	1.0	3.480524	23.152174	0.026557025	236018.27	-208316.03	327545.22	-2.0837508e6
H	1.0	14.807222	22.11159	16.043299	-103181.29	408064.34	43324.375	-2.0531322e9
H	1.0	10.196566	10.708804	8.486101	-46559.703	130672.95	-251302.67	-45506.51
H	1.0	9.867384	8.747476	17.688454	230092.42	-262662.34	-337006.94	-92784.914
H	1.0	23.632595	21.103735	19.335075	-574894.9	174787.9	150036.19	-4.5483843e9
H	1.0	22.097979	2.589887	3.9613795	-213373.52	-48563.176	132243.67	8.628406e9
H	1.0	0.09560146	7.2984467	2.787656	409428.12	-327659.66	-308646.75	-6.0201236e9
H	1.0	14.482337	11.387114	14.412478	-164201.95	65356.45	-224260.84	3.9689024e9
H	1.0	5.613785	3.8470416	2.5534263	173095.08	-200558.97	-193068.1	-1.751676e9
H	1.0	8.671118	24.017588	9.507292	194959.62	-758202.0	-70860.43	-2.3120298e6
H	1.0	7.789331	8.125767	20.567398	-5483.2505	-334465.97	58244.133	3.8572595e9
H	1.0	16.127792	0.36227578	2.6640348	-146692.53	-42965.426	274326.84	-289279.78
H	1.0	22.586855	7.3068204	11.829548	24768.498	-148502.44	90532.84	1.2791401e10
H	1.0	7.797841	19.00547	11.194907	-45756.117	159241.31	-123298.555	-4.402907e9
H	1.0	22.905878	23.357685	18.486263	134517.95	171105.48	418332.66	4.0439465e9
H	1.0	16.6285	15.357029	12.180838	-812192.9	162696.98	-62404.03	-7.507837e9
H	1.0	6.3101406	7.1227646	9.9694395	144240.12	229966.64	-34361.35	6.4125635e9
H	1.0	23.228424	12.589294	16.69309	-619470.2	225991.03	92315.38	-2.8397102e9
H	1.0	2.527305	7.1526866	18.369581	-160067.53	-182710.7	103949.945	2.244823e9
H	1.0	15.976381	15.469603	22.60834	453004.47	-443474.2	803741.44	-2.1077322e6
H	1.0	4.139249	16.29495	18.1122	-170055.4	-297645.1	271934.62	-172924.42
H	1.0	10.471998	6.330523	5.233087	83798.6	61658.56	137682.17	-395927.97
H	1.0	4.861221	22.49887	2.0723667	88290.234	764264.7	-21674.562	-8.2598467e9
H	1.0	14.197779	20.040955	13.769955	64250.16	312417.78	-62487.926	466651.28
H	1.0	15.3615675	5.3512607	0.84183776	205652.75	100573.266	-267673.06	-1.094664e9
H	1.0	15.168815	1.884916	6.413322	-45852.684	19620.43	-120476.59	1.0356986e9
H	1.0	15.793509	0.66573787	9.777914	-333407.7	-178136.28	152769.0	1.2451939e6
H	1.0	16.81641	8.097366	21.746035	269539.84	-224232.77	144247.58	-7.558743e7
H	1.0	22.668787	23.300707	6.4170613	-142384.23	-37395.375	-416547.6	242621.88
H	1.0	12.231492	5.480622	9.1448345	47458.453	192190.48	308732.34	243307.08
H	1.0	12.280749	6.4433637	21.61324	-442857.7	7888.1445	-383690.5	-7172.431
H	1.0	19.561436	9.534164	23.113276	169779.22	-83231.38	344652.84	1.4727072e6
H	1.0	10.50774	17.973938	21.613695	353796.9	-233042.6	521699.5	-7.6885934e9
H	1.0	19.829414	18.912596	1.4011222	172275.8	-451216.7	-307146.75	637924.25
H	1.0	19.442005	13.611884	19.390831	-20284.49	-127587.734	-124032.07	1.3548738e6
H	1.0	15.18118	8.228115	16.471022	-217960.48	-144259.03	118658.29	236002.0
H	1.0	16.27162	5.296097	13.360657	-193978.58	-212922.75	-171167.0	6.9268026e8
H	1.0	12.54666	22.020466	14.735779	171873.44	290158.78	28864.838	985284.3
H	1.0	17.58382	8.3362665	4.165451	-221872.77	735550.94	211107.62	-1.5825471e6
H	1.0	18.933462	21.972038	2.147029	527275.6	404046.5	285265.16	-3.1086892e9
H	1.0	0.5528525	16.363253	6.3116426	-337098.25	76863.35	-149328.22	-714465.4
H	1.0	12.058788	10.136707	8.951919	-202380.94	25892.986	-114574.78	572133.94
H	1.0	13.116891	7.2654433	3.6968896	570451.4	108403.37	252805.58	-826641.56
H	1.0	8.043287	11.818626	21.484152	251787.47	314108.8	288010.0	2.6114476e9
H	1.0	6.038809	16.191994	16.750288	-105290.42	141514.89	-95939.38	1.7841814e9
H	1.0	9.721173	17.91591	23.551971	381711.72	139303.38	8420.753	-5.2140506e8
H	1.0	22.678001	10.34163	15.833835	-88319.12	35707.812	-135051.77	1.02423175e6
H	1.0	6.7851086	0.15511219	8.095947	338641.3	15900.073	-35696.7	2.5317638e6
H	1.0	20.116926	0.18382598	3.5321012	-159399.89	401785.7	-28255.318	-3.0436893e8
H	1.0	19.800396	18.668255	21.72333	155212.61	245246.5	205427.56	730211.5
H	1.0	8.51278	1.8486999	2.0455642	215152.98	-209854.92	218234.8	1.5200979e6
H	1.0	13.620194	3.344366	16.46871	111252.664	-345826.8	-205818.73	1.1924983e9
H	1.0	4.6847744	10.108995	14.580515	-664859.4	26886.205	233803.69	-866812.0
H	1.0	8.729441	13.745354	1.0251614	-162457.97	-389147.12	-330996.12	-8.661739e7
H	1.0	9.714321	7.6593137	3.2882075	49991.16	260035.94	221184.6	-2.688962e9
H	1.0	18.11591	4.6113205	0.4026811	159034.11	-336986.3	-59241.41	1.9286502e9
H	1.0	11.584505	21.615358	2.1177275	96586.69	206468.83	-674654.3	-3.2385838e9
H	1.0	11.508659	14.359574	15.466935	193663.44	91586.9	19563.533	2.1934543e9
H	1.0	7.4066086	4.525697	18.3366	-745122.7	-301050.62	131463.86	-7.505675e9
H	1.0	6.877875	9.620054	15.639568	-234180.81	279586.25	-720398.6	-1.1684072e9
H	1.0	15.944352	13.562689	20.750296	-468278.0	328275.97	-210167.78	2.0397472e9
H	1.0	13.392296	5.825842	1.8054404	-319808.38	-5879.265	-217475.19	-7.3774714e8
H	1.0	10.919424	22.456932	23.570421	-9796.899	322601.88	-153654.38	9.1239654e8
H	1.0	14.784009	13.833804	23.870613	-365953.94	74180.21	21870.893	865892.94
H	1.0	5.4451694	19.60018	3.8909514	-66177.62	161793.61	-108478.51	208958.6
H	1.0	8.76537	5.4138255	2.690819	-356879.97	321821.44	307193.2	-2.120888e9
H	1.0	23.8654	21.37442	14.670665	-427789.22	-234664.12	-132176.19	-2.753454e9
H	1.0	1.6496456	16.192953	2.3304164	-300170.44	-295891.28	-122064.164	342680.56
H	1.0	19.308023	11.6020975	7.1187105	29195.379	295323.2	43972.758	4.837805e9
H	1.0	14.912306	16.461138	0.17699544	384294.62	8335.527	-283516.78	-296528.62
H	1.0	9.080756	14.0936165	4.3096495	223986.02	99120.87	325449.34	827876.3
H	1.0	2.6389956	18.089056	21.923788	-69715.6	225590.3	260340.34	1.1808878e9
H	1.0	19.360476	6.848918	12.853492	183970.67	-342028.78	-78571.76	-3.7932483e9
H	1.0	11.242342	17.263597	5.253417	-543388.7	-120774.55	-320890.72	-865892.56
H	1.0	20.125614	23.620405	6.158556	8019.5728	-195310.69	423499.44	45130.414
H	1.0	8.211853	16.49975	20.497913	-789478.9	522702.72	-40215.297	-8.0988605e9
H	1.0	16.382458	6.7243595	23.565798	-300342.7	-123435.69	-100843.35	33080.54
H	1.0	8.936062	11.56245	5.632017	-123286.12	-112923.69	167059.9	-7.141524e8
H	1.0	6.418685	2.681699	17.638998	-104464.086	43360.25	-64329.945	2.5277604e9
H	1.0	4.1089444	6.9680777	6.4041595	-145117.31	360974.12	-307704.5	1.3265056e6
H	1.0	15.187016	6.8703723	14.979446	175018.27	125717.625	226550.2	-5.386216e9
H	1.0	0.7885553	14.600042	12.226654	-395615.6	-233908.48	107058.98	602728.0
H	1.0	21.239956	10.990303	23.353556	240900.64	-156952.1	-58547.05	1.579164e6
H	1.0	14.268394	1.3009807	11.393247	-275462.66	-147046.23	-78499.45	5.195647e9
H	1.0	4.5309706	19.3095	8.294316	-210378.42	118088.94	-216059.53	83333.74
H	1.0	9.631429	16.011154	9.199679	-3400.0654	-89288.71	92670.26	5.550632e9
H	1.0	1.9080803	20.906075	23.518332	-612014.6	127371.1	-342293.44	-617819.75
H	1.0	8.224716	9.672412	3.7732897	-396782.16	229358.83	488007.28	122331.24
H	1.0	22.472359	15.130874	23.765965	326054.94	-86714.73	-71129.46	4.3207338e8
H	1.0	18.62117	1.2948562	4.3648148	-130244.58	373259.28	171958.19	1.3872359e10
H	1.0	12.080575	8.886345	1.4880244	718863.2	-414990.0	-402433.34	-1.028173e6
H	1.0	3.0649004	2.4851792	9.606461	-146151.28	-121774.22	292318.2	2.5330048e9
H	1.0	3.234507	18.458223	11.211317	-457066.9	602490.44	52934.96	-2.9176579e9
H	1.0	8.918187	19.630007	6.8707914	252852.45	-201459.98	-400845.88	-1.6593245e9
H	1.0	18.909119	13.218279	12.392427	46242.164	463454.78	-135462.97	-1.3564417e9
H	1.0	18.45053	17.65463	4.941945	-163437.44	174822.47	296626.56	-1.4820061e6
H	1.0	7.431175	20.653559	13.236605	-322893.88	367219.44	255943.19	-771885.75
H	1.0	3.798516	8.150502	21.309223	230789.39	-491371.66	52024.26	-3.3056612e9
H	1.0	9.91191	5.242188	8.461662	-107808.5	-36726.543	147385.84	7.1693856e8
H	1.0	20.60292	9.459525	3.9615898	-368471.3	42414.926	-225554.1	6.7959434e9
H	1.0	3.4976072	14.215796	14.078167	125365.59	-45497.457	-184929.06	-2.5388322e8
H	1.0	21.167616	1.4352462	6.190766	-162659.39	-131680.4	256882.8	-42850.707
H	1.0	6.1237073	5.5795083	21.66809	11504.267	-359129.2	-48216.0	-46149.316
H	1.0	19.824886	3.7903004	13.038951	-545433.0	94019.18	-138667.42	-1.3640485e9
H	1.0	0.47226754	10.889717	13.758337	-212034.58	-7862.5786	258282.78	577043.1
H	1.0	21.080494	11.549821	3.6765625	321351.94	-145042.3	-654391.3	-1.564073e6
H	1.0	9.970054	0.67973423	14.113557	-9828.265	45377.24	-117820.61	5.263122e9
H	1.0	13.16492	22.267813	18.820251	169399.81	-487358.47	-214842.3	-3.7376184e9
H	1.0	6.6225967	10.939182	5.9938917	355287.88	-467324.06	-6508.943	-7.946862e9
H	1.0	2.1139383	10.088721	7.0966406	-32067.314	-132402.52	-225822.53	315111.25
H	1.0	5.237484	22.895487	14.579752	65193.844	-344685.44	-161884.2	-218757.02
H	1.0	1.9106807	3.7559266	18.841509	297876.6	65906.77	470667.78	635114.6
H	1.0	4.968155	5.2655325	3.7934647	139663.86	-113389.23	-370355.66	-1.0492507e9
H	1.0	3.3882036	19.256767	0.35692063	-300579.6	228168.38	183986.62	7.7742624e8
H	1.0	7.451958	13.166903	8.08741	-330415.3	190565.97	-165330.83	-549031.2
H	1.0	16.6083	14.879853	15.002229	321281.75	-576993.0	220954.83	-6.467183e9
H	1.0	20.470747	4.97153	8.432345	-171162.8	193524.45	77658.586	1.4061286e6
H	1.0	22.57882	17.841003	23.778568	-183246.9	390970.84	-197476.6	270345.06
H	1.0	22.995525	8.251308	22.236908	-552105.56	-141877.39	320345.6	-893895.25
H	1.0	10.113433	6.2194147	17.124607	152631.02	159462.52	-336498.34	6.450302e9
H	1.0	5.1652846	12.894867	2.6537068	198302.84	-56971.777	-285027.3	241126.66
H	1.0	22.928364	17.345503	5.8738523	143064.89	37299.926	-52543.656	521717.9
H	1.0	18.481613	16.561306	6.9785457	-25359.764	-237423.95	323253.5	-552033.06
H	1.0	20.585274	8.691754	0.45327657	395137.8	68104.95	-38965.543	-745551.4
H	1.0	5.0378523	3.4337854	21.669624	189052.03	515129.25	151484.05	2.7269683e9
H	1.0	2.9915116	9.236008	18.016466	504101.56	55092.844	-75610.35	-168378.83
H	1.0	2.2423632	11.890951	0.09243964	231908.5	456510.4	491004.7	-706101.2
H	1.0	3.6927264	0.5265799	5.663994	-9740.889	136571.53	291663.78	-715530.56
H	1.0	7.3075542	14.4918995	5.0387154	172013.94	-150401.84	232489.69	1.6902646e6
H	1.0	22.473238	17.019331	2.5210238	-511777.0	111243.91	323603.56	-4.4192906e9
H	1.0	1.8366745	12.380678	13.167203	-71728.19	-163062.23	-55495.883	1.1513948e6
H	1.0	1.4731294	22.26344	18.82742	-251935.2	-321431.38	-31844.482	-347159.44
H	1.0	21.57598	11.127797	11.87696	173458.75	-211508.31	219022.02	569142.94
H	1.0	19.365646	8.517852	2.2264817	-92482.16	-7818.2144	256712.25	65622.516
H	1.0	14.525497	20.55642	8.748198	34055.293	642052.3	-143666.84	-1.5754471e6
H	1.0	7.4071026	11.494634	19.113764	-76129.57	-297849.72	627462.5	-857658.7
H	1.0	9.823803	6.931542	1.2556665	-241441.8	486163.06	-147279.47	-1.6498237e9
H	1.0	23.217342	4.3283367	20.587381	-106770.17	237046.75	-280914.0	8.936523e9
H	1.0	18.319721	11.6671915	20.774147	40654.367	97244.805	226640.44	-1.4886253e9
H	1.0	2.5022445	20.203674	10.1227455	402487.97	721486.8	-281393.28	-1.8095296e6
H	1.0	4.5377502	23.27997	22.143421	-302994.47	-87948.44	221226.64	-3.8971922e9
H	1.0	18.319569	21.232824	8.570884	-192249.39	-42941.973	-103513.35	-38290.383
H	1.0	6.6687107	18.625822	19.174093	129835.35	100524.24	-124087.07	104319.984
H	1.0	2.1412096	15.815783	17.063253	-142964.05	169988.4	10018.395	-276096.84
H	1.0	14.210232	22.100245	11.284072	-154567.62	6053.6006	3802.4482	2.9367345e9
H	1.0	15.652224	18.066145	21.333733	28059.453	-115590.8	182007.16	434547.1
H	1.0	10.436215	9.837969	4.723378	573973.06	660956.8	-241241.58	-1.2058922e10
H	1.0	23.327997	8.303303	1.0626262	-673647.75	-70119.11	-131356.4	-1.3305745e6
H	1.0	2.948258	19.451067	12.967044	47064.625	533215.94	-408817.16	-573545.56
H	1.0	6.4211125	5.389075	13.1617365	-336218.8	-420818.0	22899.172	2.595537e6
H	1.0	14.599119	24.04919	0.31938624	-110063.34	-96361.91	424779.94	3.8326047e9
H	1.0	18.584736	6.4111333	21.418257	265455.12	-200539.2	-3515.6914	4.568417e9
H	1.0	20.173334	3.246935	5.204564	157133.11	-71262.48	3732.5747	-3.191539e9
H	1.0	12.879716	21.635069	12.830691	17714.941	-154424.55	213513.34	-7.355497e8
H	1.0	20.130919	2.7714753	22.969576	159511.5	-48956.023	-49551.74	-1.4327955e9
H	1.0	17.586006	22.938421	9.393361	-90649.98	-312433.03	131201.08	-67574.83
H	1.0	23.438366	9.054393	13.676259	71411.06	-407067.2	-80077.266	-2260.777
H	1.0	2.6139338	0.86274606	3.1146612	9296.448	-79214.35	-151905.08	1.4250222e9
H	1.0	5.7413945	3.429357	6.8757906	-68352.01	341240.44	-54844.918	3.1901094e9
1000
Lattice="24.079964 24.079964 24.079964 0.0 0.0 0.0 0.0 0.0 0.0" Properties="Particle Type:S:1:Radius:R:1:Position:R:3:Velocity:R:3:Entropy:R:1" 
He	1.0	6.698882	2.1452832	2.9471934	9008.741	7852.9214	-6249.322	1.6774642e6
He	1.0	2.366324	16.128439	10.333625	-9241.896	5384.5396	1902.153	-431381.6
He	1.0	2.3011928	3.4176543	7.1791615	1715.084	-335.75668	-652.9573	439903.88
He	1.0	1.0494998	18.870579	19.531889	3291.0315	4711.7686	6294.862	170.46751
He	1.0	21.094532	10.553537	21.305641	-5878.994	-160.43759	6173.0464	9.927245e6
He	1.0	4.7179713	12.4657135	21.824415	3162.305	3548.8586	-1405.619	-212653.34
He	1.0	2.2311573	8.364732	14.191525	7071.5786	-7799.1626	4101.5625	-224.96864
He	1.0	16.56096	23.762793	7.3219914	3635.8413	527.88885	-1565.4348	-8.814036
He	1.0	7.3673244	21.36226	22.092464	-245.8154	2556.747	3189.3762	11381.254
He	1.0	23.079302	1.2260088	16.5216	-3430.3206	9898.566	35976.74	1.2753903e8
He	1.0	6.02553	16.55584	6.9076405	-2376.9238	-1918.6	-3215.6626	6.8143095e6
He	1.0	18.55664	22.210009	11.516997	5529.916	-725.54974	5379.8594	-56.563046
He	1.0	16.6027	6.330214	11.691843	2437.868	-3764.302	6010.6694	47934.434
He	1.0	15.647365	6.112958	9.953762	-6415.704	3850.5989	-12022.981	1.0871963e8
He	1.0	2.7639575	14.222176	10.904339	-2581.6233	-1677.9443	2232.6333	228.9076
He	1.0	1.8767052	11.043417	2.042183	6573.533	-138.48395	2152.9548	3.9185768e6
He	1.0	8.249726	5.1741314	9.652104	-1845.3754	249.5434	-2070.1196	131064.98
He	1.0	11.135555	2.5998633	21.482347	8528.742	-5477.2676	3698.0771	9481.155
He	1.0	23.11215	16.9851	15.617809	2774.6008	-1925.8843	2924.542	4.392943e8
He	1.0	0.029078098	10.405967	11.961254	60859.31	36898.258	-16478.172	6.9354373e9
He	1.0	14.24724	4.4126196	9.235118	165.23984	-3166.3289	6786.6826	53603.78
He	1.0	9.052363	20.448746	3.1106184	489.35852	367.89255	5572.5063	105033.336
He	1.0	7.3724155	20.424082	5.030339	-1183.8564	4308.6206	-984.72345	34.94413
He	1.0	18.011305	15.070325	20.6486	-20139.053	-1910.5065	-25450.902	9.5199443e8
He	1.0	8.533092	3.3980608	11.919441	-3108.52	352.55524	2968.0242	5484.8066
He	1.0	0.50977737	9.566899	3.1883395	-1263.8357	2014.8809	-534.86597	-13237.763
He	1.0	8.686912	20.430067	0.57862127	-2049.303	1650.8765	467.14905	312875.97
He	1.0	18.470634	17.496721	0.51758033	-3668.418	302.79526	1902.1133	1.3171062e6
He	1.0	22.230566	23.02034	16.044886	-28165.246	35611.402	-26524.262	9.132905e8
He	1.0	20.459156	13.584592	6.897349	27945.154	-14138.704	8672.765	117858.35
He	1.0	20.647154	7.736727	11.005378	480.76874	7776.7725	724.09485	-537962.5
He	1.0	21.454964	7.22551	18.871408	5362.467	120.621635	-2391.8906	876433.2
He	1.0	17.276897	13.529419	10.921808	-2477.8823	1780.0521	-2605.7676	-21.130812
He	1.0	3.838698	11.195717	1.3953488	-4492.2427	4989.923	3173.6685	342975.06
He	1.0	15.546542	18.633701	10.187506	357.0595	-7430.3047	2029.5724	4.431879e9
He	1.0	12.261396	7.8681707	14.600618	1174.189	3282.2278	-8382.566	9257.218
He	1.0	9.364806	16.143631	4.445316	4299.1055	2977.7288	-3252.153	2.0367322e9
He	1.0	2.427451	22.356827	3.1339793	-3557.6277	8201.198	2499.0042	-98.76955
He	1.0	4.960828	18.447136	22.605696	-1510.9222	1474.2754	-722.3429	90719.31
He	1.0	14.165339	4.8558197	14.098052	-6506.347	-3668.4092	-1675.8641	480130.25
He	1.0	16.027168	4.1299424	22.268534	23428.787	-1309.1627	8269.167	1.1577601e10
He	1.0	15.510512	21.62159	18.591118	10453.33	-95602.516	-35885.48	105759.586
He	1.0	18.60753	21.14996	15.000382	2902.1282	-1138.7078	-930.47375	24893.562
He	1.0	11.660448	7.660074	8.253691	-3489.0078	-3089.5996	-7328.885	-610067.6
He	1.0	13.118829	23.560173	22.238453	-1078.7102	-175.6535	-5930.4253	-117825.91
He	1.0	15.791891	18.24689	5.8248887	-15048.482	-32116.66	19142.37	425739.47
He	1.0	6.6855187	23.63948	17.012697	-2337.7378	1212.1555	-3290.2148	399012.56
He	1.0	8.619834	22.608686	11.72551	91.71512	-5444.9165	3755.3076	-368674.4
He	1.0	21.918074	19.055162	7.681263	5360.787	2853.679	1181.8035	122480.555
He	1.0	14.526336	6.2200546	22.818045	2839.54	-4758.158	-3377.0005	-72.05835
He	1.0	17.286457	8.652421	17.896378	-76073.875	17962.79	-10615.119	2.6601009e9
He	1.0	11.705129	15.934439	3.7315753	2605.4878	7034.7114	-2542.2168	1.6084285e8
He	1.0	12.410891	20.058043	8.669929	-7341.959	-1624.6412	-4268.59	-892435.25
He	1.0	4.313694	1.9275115	3.7149205	2228.8396	-6475.9727	-1964.2795	7212.381
He	1.0	6.4504414	7.9436493	17.95418	1895.1534	-4275.244	-9439.6875	-238.35197
He	1.0	5.9848337	2.9504	0.6243501	-5444.4595	-308.14124	-2993.728	547435.44
He	1.0	14.904898	4.8352036	6.22346	-2256.7905	7681.504	921.49646	2.0333238
He	1.0	15.598716	21.841923	12.671045	2583.136	-5706.628	-8869.508	3.5436374e8
He	1.0	18.071863	5.1721063	9.641617	451.70718	1321.1299	2201.3252	347945.5
He	1.0	23.596487	18.651909	21.755455	2997.3613	3603.548	1017.11444	1.1240257e9
He	1.0	13.370738	19.271885	4.3606567	-2346.985	142.81549	4262.6973	-39221.402
He	1.0	3.1100829	21.062874	1.6718036	5346.8604	195.98015	8186.121	4.1980765e8
He	1.0	21.930706	0.001006265	1.8332123	-1378.1781	12959.925	2664.1887	-1.8264286e6
He	1.0	12.220582	10.094766	16.402927	1352.748	-3113.2256	885.5009	53.474174
He	1.0	17.613123	22.989014	16.317797	-2835.8088	4788.821	477.45724	176.9387
He	1.0	5.5165215	9.717531	23.911623	5874.329	-1044.6934	-587.9692	339894.6
He	1.0	18.40122	10.032585	3.5442147	-14080.738	-3480.5657	7835.5747	442138.72
He	1.0	22.428394	14.324818	17.394333	2123.4377	6203.604	6522.7603	107395.13
He	1.0	3.173017	16.973242	6.0345416	-4052.43	3014.0132	262.20703	52.235264
He	1.0	10.98904	17.994122	3.399246	-2094.1228	-5801.7314	1099.9176	309768.6
He	1.0	16.761179	20.387838	1.0449388	-5016.4014	-1558.6663	-520.0779	2.2995358e6
He	1.0	4.1854334	21.960356	9.502866	-1673.4257	5426.297	-3246.018	222.5536
He	1.0	22.52574	6.1628804	2.201289	-4440.233	1801.809	-6351.6973	112242.35
He	1.0	22.74848	5.1752224	7.079786	-3875.177	2682.6555	3921.885	48833.406
He	1.0	6.6323304	8.005971	8.077739	-18.237186	2338.274	1847.0208	49883.71
He	1.0	14.017463	17.809113	11.32871	1496.1151	6481.0493	3099.4065	-231945.55
He	1.0	2.354514	19.481424	6.942898	6782.494	-2518.449	2031.81	14.4787035
He	1.0	2.6716974	23.564623	16.923454	10430.56	22799.97	11346.842	125821.63
He	1.0	23.878471	21.025692	10.518155	-3951.734	-2200.8655	-4853.06	-11167.262
He	1.0	4.569193	24.078737	10.696978	5903.196	-3195.7805	6612.0996	-161.16574
He	1.0	9.802043	5.190441	12.69489	-891.1303	7806.048	7583.9067	-158.87889
He	1.0	23.066519	1.5672722	21.371996	-4694.1963	-77.96413	1538.1106	410529.25
He	1.0	13.603448	21.214735	6.9859843	6721.1445	-3392.0996	-29.287308	34465.207
He	1.0	2.2702332	3.0724428	21.088514	68239.734	-809.9964	-28411.525	1.096141e8
He	1.0	17.556753	19.046534	21.567453	-1159.916	755.5979	2931.8972	168.51054
He	1.0	4.395962	8.659735	8.837543	-4282.575	1470.2056	-2897.2014	29.164072
He	1.0	16.767275	22.941849	1.4084238	20891.92	-38701.63	-45294.375	7.1664024e7
He	1.0	9.912444	4.0729823	17.650417	-4086.2937	2950.4612	-1940.8883	149.07253
He	1.0	18.844694	7.1800847	5.446836	24982.168	16901.918	-49058.04	407052.7
He	1.0	14.944702	1.9128147	19.021633	1961.8605	-2111.442	-1825.91	117146.34
He	1.0	16.300886	10.138804	16.338667	1980.4797	-11609.659	1934.1239	-387490.94
He	1.0	0.8782895	4.357343	14.831421	795.45715	-9410.9795	3079.9697	1.462636e9
He	1.0	4.1864514	23.153202	3.9038863	-560.8897	-1138.8254	2041.9178	7.590108e8
He	1.0	20.253626	20.756626	6.7290993	6954.4736	-113.280045	532.0705	530852.94
He	1.0	23.683622	12.848369	23.65733	-3099.7585	-3280.9402	1753.5197	5.4121585e9
He	1.0	9.241915	14.77839	7.605751	3831.158	-2247.7278	10264.891	172097.23
He	1.0	22.19202	4.3602343	10.056456	949.3214	-566.0689	-2555.3406	-18.151686
He	1.0	11.732172	24.037262	15.986896	4172.442	-3419.0515	-3091.985	140.87016
He	1.0	9.190675	22.057144	22.521526	99.02137	1927.4443	6549.0977	2.1374004e7
He	1.0	5.484888	3.9710393	15.705094	921.8446	3747.5051	-3903.0251	6.208754e9
He	1.0	18.103365	23.284273	18.31252	-5258.006	971.6331	-2398.9355	-61.886
He	1.0	6.644861	14.890186	8.959832	481.77493	312.2318	-3338.1426	589049.44
He	1.0	19.758389	10.702893	10.299254	-9330.235	-48752.5	-2041.8864	5.437765e7
He	1.0	11.107314	23.466095	12.040508	2323.6177	5201.9067	635.18805	44.621605
He	1.0	16.671635	19.702263	4.803081	29846.732	-184.95123	29503.81	3.4032369e9
He	1.0	1.5774052	15.055435	14.085526	3538.3477	-3539.0227	-3419.2854	-268646.5
He	1.0	12.608269	2.979648	18.472296	-2311.5942	-490.53592	3250.186	136.80026
He	1.0	10.812267	0.26143438	22.751972	-6521.453	49315.547	-22043.893	3.4632187e9
He	1.0	21.062595	14.584862	10.416042	154.11855	-9902.38	-611.12366	1.17564264e8
He	1.0	4.7883954	0.00055466505	7.174226	-45148.32	-2249.5652	-6335.5176	3.3140403e9
He	1.0	5.6338906	8.262142	5.5560493	-4966.5703	10038.508	33.051987	-140.21718
He	1.0	20.639921	2.8863978	1.0478256	-865.15173	149.70323	2554.5378	642612.56
He	1.0	8.929514	13.274604	20.322538	1046.4132	9618.717	-2059.295	2.0173904e8
He	1.0	9.48537	9.879798	20.96896	-10852.696	8528.987	10338.184	85007.04
He	1.0	11.538554	20.307755	15.9831	-849.6626	-628.266	4202.608	643738.8
He	1.0	8.465099	0.49136874	23.919434	294.93616	5693.7275	-15458.447	2.0153272e9
He	1.0	1.6771177	1.6724344	18.898767	-15266.646	-85175.6	9712.31	9.9883366e8
He	1.0	8.196646	11.13268	7.586123	4483.7817	1263.762	-1583.8439	425216.53
He	1.0	7.9707336	6.9186125	5.909998	-7074.5503	6558.709	-2326.1045	-190.85524
He	1.0	18.94524	17.225233	16.125366	-5674.143	-2539.244	951.5007	-79.0285
He	1.0	1.7387533	23.735153	10.647071	935.76196	-1628.5006	4574.5205	-195201.36
He	1.0	12.350008	2.0590374	11.9617815	-10569.365	1928.8353	798.0316	40.515884
He	1.0	17.325563	22.818705	12.997685	6255.8477	16789.4	1834.0061	9.9999e8
He	1.0	21.950535	21.178635	23.049814	4323.934	10824.128	26477.309	235496.03
He	1.0	19.952383	4.5296407	17.394602	-4024.9526	1031.737	2809.502	8575.59
He	1.0	9.138863	2.5889165	21.442526	-5260.825	5295.0835	7609.6787	293304.53
He	1.0	1.1820574	1.8240023	0.987752	7992.1694	-2183.8237	7237.3716	-760701.56
He	1.0	4.650333	21.266554	12.102693	-3686.0046	-326.25473	411.6842	236635.27
He	1.0	19.514036	0.17057039	15.849639	6963.2983	-3359.6604	-7239.684	8.820271e6
He	1.0	2.9363263	4.6403847	13.354007	-97693.2	57988.277	5344.5884	686551.1
He	1.0	20.31396	18.92961	10.664301	3734.3804	3650.082	-5411.9727	-94853.17
He	1.0	8.911804	4.0649347	14.120337	-4534.578	-4395.6255	1328.4861	-10.923973
He	1.0	8.727804	11.393236	0.36272216	4050.1924	-15438.814	-47508.277	368945.38
He	1.0	1.3918794	14.886273	18.714193	6995.096	3232.905	718.921	2.967834e8
He	1.0	4.742321	17.849642	15.179045	6110.2974	-1123.0996	3963.2427	139745.83
He	1.0	14.801903	12.995332	10.601322	12458.905	751.3265	7585.783	1.220877e9
He	1.0	15.015113	17.318342	2.037101	23544.016	35593.47	75339.49	1.2915447e9
He	1.0	2.1469033	6.889365	10.213924	-6667.768	-10700.638	1068.5002	16016.218
He	1.0	23.48313	2.8347921	18.904285	-3277.333	1782.4299	7741.0293	-932315.06
He	1.0	22.816479	1.8205869	1.003245	37415.594	93547.625	87102.17	1.948629e9
He	1.0	19.31062	3.296627	8.489243	2378.3992	-1251.9266	-3860.049	167259.92
He	1.0	6.9752235	14.1732025	23.165161	3187.9033	2071.3306	2937.1072	-139384.02
He	1.0	13.258957	0.06259595	19.835339	-5688.155	-4040.3794	-42.237278	114999.5
He	1.0	10.368689	12.4838915	2.357866	8169.5996	132.57886	-3768.6367	544656.8
He	1.0	21.772297	17.840532	18.285477	-3798.9568	11778.029	-22084.453	18498.562
He	1.0	3.3639905	7.803972	4.0204954	-4688.76	-4180.9844	5339.048	-820121.2
He	1.0	15.571417	14.4846325	6.2311788	4224.741	-671.94995	139.6929	20.667627
He	1.0	19.474213	3.6796222	10.506	3569.3916	-2860.2505	-5155.6133	65926.9
He	1.0	17.129171	14.665037	4.8936186	-21392.03	27996.762	4863.9976	8.512063e9
He	1.0	13.540685	18.806328	21.258772	1747.5471	4912.858	11340.746	3.8056876e9
He	1.0	18.584217	10.149614	13.137324	-5357.1597	-3631.2812	-2166.859	612691.94
He	1.0	10.017642	12.725408	7.061713	-1470.3483	-4203.8022	3204.5273	1.1741174e10
He	1.0	14.053579	16.227571	4.2820935	2682.7446	3060.2266	-853.6076	-17583.885
He	1.0	7.8661776	1.1550897	17.281164	262.0704	-1154.6844	-1577.3635	1.2195428e6
He	1.0	5.8786235	12.21252	12.453684	-21154.682	-17879.18	-6039.4575	735587.8
He	1.0	23.026407	0.86802405	14.567082	7621.276	4451.1836	-32747.145	327478.6
He	1.0	10.53597	22.005732	9.747643	-1102.8055	-3108.395	-1416.3752	47707.07
He	1.0	8.136446	18.648798	20.67842	-756.282	1505.1062	-1281.393	24.007488
He	1.0	12.69847	9.2084875	18.17301	-389.63547	3133.1936	2644.7021	55.526768
He	1.0	4.371686	6.572143	9.970853	2459.8481	-2265.4207	3237.3562	1.7350122e9
He	1.0	22.188879	15.404384	19.347158	-140.11476	-8507.695	-2853.5256	-148.14163
He	1.0	17.87692	11.483763	9.068574	-2848.4883	-2801.7437	1595.1709	6.061958e8
He	1.0	7.6560745	9.776637	17.908695	-5994.2915	-1778.8542	7213.577	-583951.25
He	1.0	4.085341	2.1274376	7.1952534	-1847.1719	3712.583	1425.7733	440026.84
He	1.0	14.495554	6.6896377	8.408884	-9355.868	15231.377	7831.0356	8.709083e8
He	1.0	2.7833164	4.6432486	8.956388	-6573.759	-25172.184	4522.8413	1.9247709e8
He	1.0	0.77013576	7.8497167	4.8400126	-7834.364	-1065.4004	-1511.9337	-152.73001
He	1.0	11.30705	13.24245	12.549388	6230.0464	2289.216	-3379.8645	2.7628324e7
He	1.0	22.082422	19.933397	15.20073	39302.918	-35502.59	16653.752	89924.39
He	1.0	9.656629	14.517668	16.361225	-6167.142	1704.9662	8826.365	3.1516028e6
He	1.0	4.3214946	14.228275	9.33219	1014.4132	7600.1924	4888.5244	1851.8422
He	1.0	11.07246	17.81521	1.1690518	-2414.6304	-6185.185	22752.463	98780.77
He	1.0	14.241235	22.463722	20.851791	2605.1406	5843.468	2474.3242	-560761.75
He	1.0	10.188751	22.32416	13.537044	586.788	3561.0469	2756.3857	-3.3864954
He	1.0	21.037418	16.068155	22.537725	24815.41	7601.066	-1397.1553	227114.55
He	1.0	9.852335	19.042307	4.811965	-5321.059	-1731.3356	-1402.8108	269456.6
He	1.0	22.631174	3.2461822	22.963438	-700.96295	-1186.6157	-1192.2834	5.983362e8
He	1.0	13.295297	13.680224	12.542672	3854.7979	-1550.6698	330.275	367524.9
He	1.0	13.036068	18.141296	1.3053954	15700.689	-750.1501	343.53726	67713.65
He	1.0	9.533674	16.124971	15.109467	4068.7456	-9378.7705	457.56754	-265163.22
He	1.0	13.461001	4.4385962	4.828178	1200.0992	-2703.1428	783.67737	404488.16
He	1.0	13.023532	14.277191	3.972361	-4797.037	9875.88	-1567.8488	-695161.8
He	1.0	21.183481	9.61487	18.294949	-1395.1409	-5022.727	-709.25037	69893.45
He	1.0	4.569874	7.9892664	19.324398	-47.457462	-86.66839	1570.2684	206561.53
He	1.0	22.70051	8.064966	5.106999	6409.9556	-863.29553	-955.0318	329379.94
He	1.0	17.641253	3.766012	14.096787	1561.98	2835.9058	833.43506	2.460289e6
He	1.0	3.9121716	1.9171153	18.310724	-5771.8003	-2216.1042	2749.6484	47.839733
He	1.0	9.516303	20.689812	11.132019	-255.17853	-17.649748	3434.3208	142.47632
He	1.0	0.012630954	15.33946	16.8938	-4286.252	-3241.7249	530.63275	-41.63509
He	1.0	21.829529	9.6239395	6.1833844	6028.383	4292.8374	274.94092	-201769.66
He	1.0	1.7391177	14.373984	20.882687	-4418.697	4240.029	-3106.7473	58784.28
He	1.0	2.5052452	18.037832	9.216294	-170.68156	-1272.4525	1903.1196	5.7128835
He	1.0	17.176804	1.7621381	7.3965826	3373.9556	-2546.5444	-1197.2557	3.776451
He	1.0	8.103033	16.695286	7.3189955	3707.3025	11381.957	-3232.511	54696.684
He	1.0	22.5705	9.89911	3.2714353	-502.1417	3011.1992	6859.372	4.0584558e9
He	1.0	22.18512	15.385897	13.932458	-1403.7292	2053.6772	1865.8643	156.15141
He	1.0	21.441435	13.633747	15.666069	3241.2617	1089.633	-1141.493	111221.72
He	1.0	10.337038	12.373831	9.536232	105337.06	-115304.01	-72832.3	158829.36
He	1.0	16.946312	14.447142	0.15530357	22141.744	-32969.977	39976.35	3.208088e8
He	1.0	6.514054	2.1898794	8.739233	750.6887	-5902.5757	1343.1705	1247.2181
He	1.0	7.8376894	9.209601	10.308303	20966.37	-26240.266	1475.9425	7.789436e7
He	1.0	9.216945	16.46533	22.233442	-6793.164	1554.548	-2061.7695	1.368089e6
He	1.0	10.522938	2.0053082	3.2300599	-1231.2919	2769.2593	-5551.5	4.0775148e7
He	1.0	15.776731	17.318642	19.094843	-123.74205	-3422.5554	5995.1226	-81234.55
He	1.0	20.340527	0.75394636	0.61100763	-4349.734	7971.786	-915.96796	123336.77
He	1.0	4.6226296	15.357196	7.710581	-3748.2854	4764.4404	2360.3284	4.660902e6
He	1.0	13.839845	8.7225	9.220732	-686.6589	685.4147	-13472.278	1.4912604e9
He	1.0	6.781507	23.964167	12.077387	-3596.1687	922.87683	-7090.7144	-114.2713
He	1.0	3.380734	1.0105331	15.840555	5861.4556	216.96822	1028.3923	577931.7
He	1.0	11.22733	1.2122836	5.2506657	3800.4102	-5101.543	-4496.003	-605569.75
He	1.0	2.1944969	8.460085	16.19053	-4220.587	937.36676	-4116.5615	845264.0
He	1.0	5.0347114	2.5669925	10.415678	85091.06	27979.52	43511.973	1.4087304e9
He	1.0	17.307985	2.637655	12.478131	1684.3102	-3743.607	-5157.2124	20.205578
He	1.0	10.621828	18.167461	14.693417	-1399.7561	-8456.775	5044.0347	-391794.72
He	1.0	0.928649	22.766167	6.335655	-8542.8955	-5229.436	-4103.6934	4.2446928e8
He	1.0	4.199507	0.3520604	1.4934909	34552.95	46971.4	-69584.39	7.8901094e9
He	1.0	9.547952	19.847008	15.790737	-4672.7466	6057.046	-2985.975	-327332.9
He	1.0	9.191097	13.493044	22.299543	805.6043	2024.0293	5497.5264	1.3190577e8
He	1.0	1.7677504	18.51748	5.292227	-1259.152	-8722.114	-3734.8506	15.292868
He	1.0	2.7750568	11.25483	8.911927	-94.86609	-5255.634	8968.7	-98.303375
He	1.0	24.011263	14.527537	20.030535	-7616.7524	-4606.56	-8455.3955	297843.06
He	1.0	2.5410566	10.220456	15.038663	-8457.172	-1822.391	-137.69705	1.5469745e9
He	1.0	13.112193	11.366481	6.4129987	5381.399	-834.6843	3076.9248	-277643.9
He	1.0	14.78432	22.004496	1.2001568	-1590.5596	-9900.682	8447.213	-1.5627649e6
He	1.0	22.271082	5.750859	4.2752585	1415.3462	-6484.043	-4411.752	160050.34
He	1.0	2.0355606	9.378743	21.654392	-6491.624	-3372.2024	2110.1086	1001.3622
He	1.0	10.684953	8.89391	23.939701	3337.527	-24870.566	-8304.769	3.5687124e9
He	1.0	12.51714	18.626944	10.269238	2829.616	3887.4124	3497.2378	109.869415
He	1.0	15.703441	21.269852	6.217597	9562.234	23126.53	-11450.625	3.4433315e8
He	1.0	0.5039224	9.73586	16.859358	4149.737	4338.876	-3692.7925	-387908.72
He	1.0	7.377451	3.0425584	10.327621	5205.852	781.25336	4600.346	1624.56
He	1.0	3.5306284	3.5538232	17.216974	6464.7944	-224.10155	1937.8491	52640.2
He	1.0	21.301065	20.348013	9.383537	5513.8394	-1419.6891	-425.6826	-92369.15
He	1.0	8.910964	7.5845184	8.420631	-1563.7925	644.5291	1607.9808	75912.84
He	1.0	12.8079195	19.87808	2.521097	1111.0294	-3497.0452	9071.748	1.6408622e8
He	1.0	5.9135785	7.78931	14.522383	-1950.3934	2820.376	-5792.7617	7.681559e6
He	1.0	7.723665	21.432726	19.135677	-27052.81	1116.3867	-27934.387	2.1978463e9
He	1.0	17.59061	8.534445	23.848383	-2479.923	810.0793	-1539.3727	16.692087
He	1.0	10.519987	5.334784	22.319515	-3135.5017	2652.8557	-9086.967	1.3938499e6
He	1.0	17.575745	4.930103	19.687927	25.357946	869.4214	990.1984	3.4658154e8
He	1.0	6.0966988	8.278365	12.592706	-3370.0745	8029.391	-4739.7236	1264.1923
He	1.0	6.7843113	0.3774924	22.762148	5956.3237	-4230.6255	1731.6967	-0.5698022
He	1.0	12.587029	15.076478	6.138013	-2672.2253	1116.996	1857.7491	114.37089
He	1.0	19.217499	20.487997	21.296944	15441.661	-26767.535	-763.3483	911138.94
He	1.0	19.816084	6.6065655	15.45043	-2929.205	677.32336	3384.413	757.5856
He	1.0	0.040143244	21.218124	7.6019664	-3575.225	9368.904	-17117.93	29196.832
He	1.0	12.074652	3.4418082	10.461409	-10958.237	-2247.8345	-2642.6062	-155.18428
He	1.0	19.344002	23.991655	20.006239	2968.708	4301.3535	-1978.6879	79912.28
He	1.0	5.363433	18.2743	17.312712	-1774.023	837.4873	-358.3577	3.2325354e8
He	1.0	12.0429535	13.443583	7.2535	-931.0029	-3088.6345	-10437.315	255944.25
He	1.0	21.456451	19.955856	21.562355	-7644.588	-18408.123	-18099.738	362351.38
He	1.0	8.792844	8.161692	12.409943	3145.5315	10890.994	-127.772095	64783.297
He	1.0	2.2477677	13.036219	15.854804	-49.228	2269.195	2309.5032	113148.84
He	1.0	5.3669143	17.386099	5.1607995	-15.819933	-1160.4714	210.1883	2.6561124e9
He	1.0	20.829271	15.772996	7.616621	-2323.561	-3711.4106	-16710.242	782655.7
He	1.0	17.022	6.7553716	18.692396	9747.779	-8254.524	-10874.264	4.1435492e9
He	1.0	4.276807	15.86285	1.6994325	-4758.0547	2236.9116	-2195.6057	26388.781
He	1.0	7.876802	3.7531905	3.680065	-6108.055	2050.3909	4669.5757	-125.881424
He	1.0	10.756392	2.9999397	6.539726	-3447.7947	-7372.7593	24532.148	555627.0
He	1.0	19.399483	7.2427654	23.53481	-23449.4	-2831.2131	15129.093	313546.03
He	1.0	15.276838	14.359891	13.466632	-7494.9507	-113.36661	-2026.7795	4.440167e9
He	1.0	9.829268	23.261229	3.5498586	-3310.276	5942.9976	-7507.5396	1.8459547e8
He	1.0	1.6562637	7.4728627	21.145157	36066.69	-8542.153	52492.676	6.36292e8
He	1.0	7.8422556	6.679675	22.086134	7990.607	2397.5264	11552.03	2.5543424e8
He	1.0	17.478054	10.819172	7.225126	-36991.688	-11190.368	-2568.221	172432.69
He	1.0	22.7721	3.3114552	11.692057	5326.674	1297.936	-446.84238	189.80939
He	1.0	14.435841	8.892889	13.524588	1888.158	-1450.3665	4483.678	501941.38
He	1.0	3.817802	10.238204	22.993862	-807.4451	-2077.4807	3340.807	2.803885e6
He	1.0	20.660349	13.844605	13.2684765	42935.72	18697.793	30008.72	111604.414
He	1.0	5.197978	3.4297717	4.694324	4415.965	-61820.355	28452.51	8.074348e7
He	1.0	16.607952	11.586586	18.516409	-961.363	-7625.9414	6802.071	-195.43993
He	1.0	20.176888	14.622628	0.32343736	-7894.594	11924.338	15682.246	9.152055e8
He	1.0	11.860381	4.80267	12.240718	-238.91736	-5030.279	-4640.95	-63029.27
He	1.0	12.126707	11.86069	14.672069	601.13495	423.06754	-5105.8213	-125476.19
He	1.0	0.06862914	13.328721	13.974856	-12584.5205	3948.371	4073.4294	1.2015011e6
He	1.0	0.570992	23.668985	15.971815	686.5834	-2503.751	220.72585	77.1525
He	1.0	11.734403	23.830942	3.348631	-3537.8196	2514.202	-3595.2773	19111.541
He	1.0	11.574554	10.671835	2.7497637	-7147.3174	3396.147	4610.382	-831751.1
He	1.0	12.7434435	9.980923	20.234905	5086.772	1069.5369	-3632.418	-401433.0
He	1.0	19.09535	13.643829	2.156944	4406.0024	-1107.7465	-9858.94	2.0098858e9
He	1.0	14.775495	8.332965	22.800537	-3673.6904	-6076.335	2437.8186	-372444.44
He	1.0	7.3527274	6.871328	11.91035	-6159.271	-8499.531	-3048.542	1.9121681e9
He	1.0	6.071719	7.7268586	0.1896893	10106.11	3195.1914	1412.978	-129.88776
He	1.0	21.504047	12.052772	8.007156	-123.72666	-4336.3374	-3016.15	107.77114
He	1.0	23.317719	21.612724	16.905949	-48536.977	123409.86	52660.24	873245.9
He	1.0	20.755579	9.730078	8.868533	-668.4763	-7512.686	-2014.934	6328.793
He	1.0	5.1685014	8.893888	1.6187358	-2082.4084	600.90186	-1386.9517	3138.054
He	1.0	18.826698	14.2131	16.915705	-7353.255	26997.475	-10571.523	2.3331142e8
He	1.0	9.62683	8.060484	21.944096	-8328.21	-754.7533	-694.9991	-60.170975
He	1.0	15.773822	12.476804	12.872282	3048.6067	6009.876	-2527.834	-252238.06
He	1.0	12.503215	18.442352	23.175722	-83.3325	1486.3848	-200.75299	257755.77
He	1.0	5.32644	15.889808	3.6839395	-139.79712	4585.1553	-4417.6914	2.6550482e8
He	1.0	22.2267	12.571804	5.8671656	2350.4817	-1205.7142	4409.4995	-154029.31
He	1.0	5.619581	3.0832002	19.63358	12349.615	364.99173	481.81708	-959366.25
He	1.0	12.76053	1.5813273	0.23547617	-3124.587	-2934.6338	-2066.2593	-123531.05
He	1.0	15.995267	0.042109072	17.110626	72921.2	-50781.785	493.38525	1.6354612e9
He	1.0	1.0663977	21.129053	4.0803366	-3074.8796	-339.46478	815.0938	7.509822e7
He	1.0	21.610447	18.280258	13.858894	1793.5013	-7166.1206	1679.0637	1.1774914e6
He	1.0	19.024227	0.1058132	8.838852	-3544.8347	8822.933	3324.661	6.431019e7
He	1.0	11.907046	4.8189087	23.658192	9984.452	-2366.6921	9086.355	2.5306925e8
He	1.0	10.267542	6.43511	19.87423	2141.8723	-1290.5515	5226.8096	1781.5454
He	1.0	6.0265484	6.450408	2.520305	-5159.453	-9122.484	-337.60184	73455.72
He	1.0	6.5889215	22.59095	4.6183667	-9582.4	-593.15375	979.97797	9097.241
He	1.0	2.9798713	8.688353	10.42736	2042.4894	15736.875	1264.8727	9.3913536e8
He	1.0	22.992092	5.7800922	22.163496	1906.8958	40447.465	49162.29	183067.05
He	1.0	15.2488165	2.0518196	23.403849	4084.0276	-6512.2715	4947.7505	219181.77
He	1.0	10.720475	18.345707	11.119032	3247.2842	1621.7701	2523.5686	11625.22
He	1.0	16.358202	12.87189	9.23284	-6182.2524	-1296.0409	1777.7013	-407194.84
He	1.0	2.6174743	23.918665	12.675532	-260.73456	-917.4476	-2589.1074	55.570763
He	1.0	1.3086253	19.944239	14.535495	2410.3186	8090.548	1751.497	4.8471302e8
He	1.0	19.5782	9.554265	7.0858665	-4945.1865	-2302.6174	3216.418	210824.3
He	1.0	13.449814	12.067569	19.709835	2432.6863	4208.271	-7111.1733	1.26507896e8
He	1.0	0.7144004	12.669278	20.645443	4999.887	-1471.9072	3045.1924	92297.82
He	1.0	17.965433	4.472948	6.9259925	889.36554	-1746.1382	-3459.1328	268630.03
He	1.0	3.1837752	7.634664	12.35522	484.63498	-2314.5496	-1647.603	7.546621e7
He	1.0	23.52754	16.300774	11.658031	-14952.469	-9182.317	-24683.125	3.0738945e6
He	1.0	20.483154	18.292633	6.356226	213.3938	7093.7524	1568.0422	-439363.3
He	1.0	0.78528607	1.8320419	8.851014	1160.1099	4062.7168	4401.883	-35.678047
He	1.0	5.8561993	22.276995	19.102453	-6303.423	1731.0353	2145.5544	2.8055682e7
He	1.0	8.658363	2.1328394	4.776563	-38836.34	56490.25	11077.979	3.6126769e9
He	1.0	15.242304	12.39202	1.6809149	-2759.6423	11547.119	16823.092	1.3798218e6
He	1.0	15.335907	4.140421	3.5395873	-1552.6041	-1377.7025	-7033.758	-30.739868
He	1.0	0.5289371	10.019867	22.810228	1318.6309	-3534.1648	-3509.1597	1.0300135e7
He	1.0	4.8080864	16.570429	10.249257	-2502.033	344.7424	153.27246	-4.275574
He	1.0	8.482852	4.9403377	20.77195	-2570.098	1963.157	1114.6804	2975.2466
He	1.0	18.985403	12.339712	17.565933	3532.974	-23925.93	16257.65	249249.52
He	1.0	19.297213	15.181714	22.156654	39026.08	37676.15	27314.885	1.0161774e9
He	1.0	19.773605	16.411774	14.156834	-6636.0586	-2490.9585	-4395.0376	-113.69173
He	1.0	1.5484565	5.2658176	3.6288679	779.8236	1154.6383	-2720.5378	4.48334e9
He	1.0	4.851761	5.0985947	19.205755	2518.8508	620.1499	2979.1372	336.43808
He	1.0	11.738699	4.994991	6.174605	3642.0662	812.635	1336.7302	47.513927
He	1.0	23.837193	14.214589	22.001476	1917.6553	-4521.7925	1545.1523	3.612506e8
He	1.0	23.787586	1.4863293	12.009746	1919.6125	-1283.8129	-1574.7864	222646.2
He	1.0	23.70969	0.2999814	9.543753	15184.769	-8638.122	-15181.158	7.1785805e8
He	1.0	0.8043253	13.346808	9.281939	-5429.0537	978.99493	-7645.536	1.107058e6
He	1.0	6.9918957	10.004432	12.051772	58.20753	652.9944	-3507.6902	63.3354
He	1.0	5.0723267	16.620674	13.462939	-6446.9736	-4751.3354	-5944.8735	-176.88225
He	1.0	9.85257	8.383542	19.702965	1333.2421	-8200.281	-11757.005	1.9369434e8
He	1.0	3.3126004	0.47950163	20.209124	-7484.2515	367.5797	-2585.1233	2.4124209e9
He	1.0	0.68928784	10.125962	0.72047466	3864.5107	-3104.432	-1567.9149	3.115697e6
He	1.0	20.574238	22.352568	20.152447	1834.7952	5184.2524	-3082.4333	6.872841e8
He	1.0	6.9478464	3.0631886	22.289425	-6646.4155	-2702.0354	1047.4564	15.55945
He	1.0	22.491947	19.91052	11.765783	-11817.469	-1277.6761	3601.4456	36436.812
He	1.0	13.329906	18.841812	15.2165165	-4608.3594	2610.0854	6899.4434	50134.168
He	1.0	20.741041	2.8284097	15.959576	-847.19904	8767.722	-451.35745	-393226.06
He	1.0	11.7048	0.02107634	18.508268	3745.0256	8126.768	-516.58527	2.4715528e6
He	1.0	14.784533	19.167025	2.84767	7882.074	-9838.022	42339.31	258243.84
He	1.0	17.80215	6.439581	14.082808	24147.078	20553.545	17129.062	2.7707387e9
He	1.0	9.288754	3.485483	19.6627	-692.81287	-3445.3142	-909.84247	3820.7644
He	1.0	6.5880814	23.233355	20.779243	-4394.973	-5521.6514	8109.093	-11.029318
He	1.0	10.933859	2.0227532	17.052101	-7240.8086	-8077.6714	10429.5205	232752.97
He	1.0	19.615967	20.16589	12.572569	150.79195	2593.775	-3026.6746	65.336044
He	1.0	11.95742	21.206562	22.241716	-892.3228	-1281.2369	-4018.7405	567951.56
He	1.0	22.907204	0.7689181	7.773595	8451.322	2916.6448	1671.9357	59277.426
He	1.0	14.278352	14.068549	8.89566	1009.03406	7135.4653	-2214.2917	27592.105
He	1.0	11.623699	2.9832911	15.444828	4736.3696	6227.7188	-20772.102	829400.75
He	1.0	9.987548	11.703385	22.842373	-417.56912	-2348.2246	473.231	3.2033324e7
He	1.0	12.387453	12.043138	17.893034	-11556.53	-2251.084	7483.63	24920.176
He	1.0	23.649158	5.9912004	19.46791	4764.421	-97.821785	-6554.29	417720.8
He	1.0	16.923819	21.890257	4.6063757	14195.279	14480.915	22900.238	3.0169156e7
He	1.0	20.640356	6.931036	2.3410573	14385.482	18181.654	-21567.08	5.491935e7
He	1.0	12.803292	0.9043272	7.6871643	-3684.9563	-2382.622	-1187.2723	97.66415
He	1.0	14.781008	14.372411	2.249059	1273.52	-14.233771	2049.7058	335.67697
He	1.0	15.073899	15.29631	20.315474	-7822.9043	15558.364	-300.53882	643912.44
He	1.0	10.1182995	21.740292	18.342194	3199.999	3145.8032	1901.0718	15367.795
He	1.0	18.032137	17.310806	22.637054	-5975.255	4663.1646	-961.46313	-83089.67
He	1.0	14.322934	10.419178	18.312555	-2687.611	-5351.4297	-1272.4124	7.9382105e6
He	1.0	21.314953	0.8430838	19.133177	2877.0369	57.640984	-6536.5835	2.9709e8
He	1.0	18.229183	7.6923666	16.003754	-4753.3096	3846.893	-1399.9824	2.0381429e6
He	1.0	18.27919	14.730818	13.504899	-1859.6873	-3396.9846	3387.607	4.589604e9
He	1.0	11.825838	15.020501	11.626888	-83.940834	-2751.3179	108.19465	761478.6
He	1.0	15.550599	18.705908	15.323322	-2436.1753	-1340.671	2403.8252	252481.08
He	1.0	13.0852785	8.12672	16.401962	-1001.8553	-120.757805	6125.143	4.554855e7
He	1.0	2.0243237	3.206532	2.4295318	-1150.1401	-746.43353	1463.3503	731073.56
He	1.0	8.7771845	9.062129	14.59723	-1261.206	229.18251	-2771.0525	8.3921094e8
He	1.0	7.022455	10.469038	22.746859	8922.286	-1642.2534	7812.323	8.5569466e8
He	1.0	5.860745	17.726793	1.0430008	6189.798	-4740.3403	-1842.0657	1.0431775e6
He	1.0	6.597346	0.35194522	15.014316	-18018.389	-80644.42	33741.207	6.0715904e9
He	1.0	16.103785	0.72217447	22.178368	6263.518	-717.1154	5249.655	2.2112061e9
He	1.0	12.525703	17.769876	7.5526233	-1045.8992	2191.4954	3593.602	55980.06
He	1.0	2.1512623	11.88208	21.792673	4016.1606	-2316.9583	-4659.1553	5.476632e9
He	1.0	0.06304611	11.060834	8.938397	-7388.354	1856.8405	4162.672	-669322.56
He	1.0	0.10807246	12.034092	6.8566046	-996.7973	-1462.1587	-499.7758	1.2977055e6
He	1.0	10.656013	20.012863	0.75719434	844.09235	427.21622	-2421.051	1308.5801
He	1.0	6.2720294	15.787469	0.18419148	-4051.8818	-959.6505	6167.074	5.2877984e8
He	1.0	13.661796	5.9207826	16.214499	5573.389	2992.8691	-2844.8584	940122.44
He	1.0	18.320627	4.3210206	4.9603767	8916.042	2417.1487	-6207.148	-33.268356
He	1.0	18.616388	4.5791554	22.369797	4666.8545	-1907.5316	431.10263	6160.1953
He	1.0	6.1162047	22.839514	10.413458	5249.22	-1644.2103	-565.51807	-1.5986665
He	1.0	3.9953616	1.4537342	12.003219	6072.518	-2325.1765	12090.637	1.738808e9
He	1.0	17.987871	9.637457	21.190578	-4799.6016	-9896.715	185.56438	127902.82
He	1.0	4.5505886	16.364092	20.574066	-510.13687	-1779.7861	3445.1821	1.4400006e6
He	1.0	2.2320807	22.684372	7.934653	4000.8723	-1047.8986	1724.0885	-20.09055
He	1.0	11.0089655	9.295927	13.663665	-10.639956	-11079.301	1383.577	-779087.56
He	1.0	3.747353	7.983444	23.579512	-8146.9966	-2732.0095	2497.3867	2095.8445
He	1.0	19.888292	18.626383	19.578691	-2918.5432	-1497.4519	-11821.566	1.45921e9
He	1.0	2.6544316	21.773657	16.056292	-3461.0737	-26825.4	-3135.268	119309.516
He	1.0	23.756298	10.229638	20.16618	-282.8866	-3146.1355	-9251.069	-705335.06
He	1.0	6.7730207	18.271145	7.70438	-15942.811	-13315.122	-21134.678	2.216997e8
He	1.0	20.431614	16.247028	9.511613	-10677.115	19801.865	1901.5466	2.3230171e8
He	1.0	14.822394	19.621025	6.904377	-44462.984	-7964.865	-73309.99	605807.1
He	1.0	22.161835	4.8975644	17.485416	4626.074	-1218.86	3.4304576	3.5596603e9
He	1.0	16.129803	18.267454	23.457726	-485.06775	-684.1583	8335.77	184301.03
He	1.0	5.66432	20.19899	14.567755	-3745.3916	-1432.3185	-1737.737	151.24475
He	1.0	16.27816	8.090205	12.582397	4058.487	4007.7793	1604.105	9107.395
He	1.0	19.53128	2.707936	3.202775	1244.1675	1179.873	257.62775	1.2393449e9
He	1.0	0.5648016	19.863731	8.961563	24752.83	91324.164	58398.53	2.5096087e9
He	1.0	6.514088	11.5029545	16.794659	2268.5525	1917.8685	-1123.889	12.81649
He	1.0	0.4948958	20.159594	1.5305976	-4384.585	-1145.9896	5572.352	-107.1711
He	1.0	22.492424	13.282579	1.7766685	-5994.7646	3661.3674	-301.08527	1.6474906e8
He	1.0	8.280297	11.404113	11.15143	-2014.1927	-7261.0693	-3604.4446	15791.035
He	1.0	0.7438969	7.597412	23.33508	-1709.2872	4448.747	5847.9824	-70.74179
He	1.0	6.5297194	19.640879	21.524364	-7527.599	-6444.6587	-118.71943	18666.455
He	1.0	8.448012	5.0328665	5.367058	-1475.4036	-3871.8926	6248.3867	-479662.03
He	1.0	17.661045	1.9612181	9.392948	-4284.5244	-2153.2202	3444.9556	17.10775
He	1.0	13.639488	4.0638776	0.7580811	6506.712	-95.71615	-457.8118	22582.533
He	1.0	14.850558	22.894352	14.193283	-668.6403	5348.352	21154.371	44794.31
He	1.0	8.008227	18.73511	9.19185	-119207.555	62241.57	90570.52	1.6837072e6
He	1.0	7.775124	7.446081	2.2628458	-54649.234	90212.34	-19011.148	1.0325363e10
He	1.0	16.594786	9.626421	10.410774	18543.018	34659.633	29857.549	4588.938
He	1.0	10.7074	23.127424	5.3400564	4619.8945	-6805.283	5200.3135	4.412271e9
He	1.0	23.301836	4.758336	13.7045145	-5130.395	1837.0465	148.10541	99294.25
He	1.0	3.4924712	11.27798	5.983169	-1926.3019	-1115.6483	9575.601	955873.9
He	1.0	21.503567	15.823315	4.932604	-1284.3613	-5965.086	-4939.291	6.350081e9
He	1.0	10.450814	15.850296	1.7068162	-3111.1824	4829.621	-1939.5381	-29.739466
He	1.0	21.259113	16.680708	16.514753	3594.7424	2906.2632	650.6316	80.32142
He	1.0	17.673094	3.0439808	21.121155	-1465.4016	-8812.35	-1092.3481	-121.51157
He	1.0	4.9642005	13.069231	4.9687896	-5335.884	-1394.2635	1104.2096	2.784684e9
He	1.0	21.269627	22.700985	0.22487918	-2032.9093	62.00402	-1670.5438	197693.52
He	1.0	21.799656	19.340763	0.79044425	-1815.0002	-4374.3135	3137.3013	4.0236954e9
He	1.0	3.7327883	22.64632	19.811155	-729.02673	-6626.7217	1498.4579	853589.06
He	1.0	13.181243	6.3283234	5.6679254	3450.4312	-1242.4463	-8856.493	-1.049057e6
He	1.0	9.386217	14.932705	13.468609	-798.2351	-40.545086	1090.4143	562394.0
He	1.0	4.7744126	1.0592549	9.002423	107974.836	-78573.26	-44034.08	435394.25
He	1.0	8.501609	8.956368	5.8777313	-2044.4694	-2568.1956	-448.78467	170.68756
He	1.0	18.197302	21.891085	22.26594	-18301.021	16829.467	18991.334	2.0025316e9
He	1.0	11.862893	20.541632	10.567854	-10195.14	491.74326	-6169.3145	662129.25
He	1.0	7.0287833	18.560736	2.4359643	-3858.513	249.80373	-3386.8938	-118.35145
He	1.0	16.266817	12.747441	16.122877	17.715128	-8056.6655	999.1043	-75.90245
He	1.0	22.584408	11.33807	1.0750042	-3920.8904	-7548.4062	2660.644	309852.78
He	1.0	15.484257	2.6640332	14.418971	-1142.8126	-7230.032	6685.518	-1.0896379e6
He	1.0	3.6080635	6.4708886	14.165416	-1537.306	-4813.9424	-7167.5483	-860173.9
He	1.0	14.2166395	14.118671	21.689594	1445.929	5833.9355	-4379.0693	3.557982e8
He	1.0	17.40391	10.090075	1.152957	-2247.3198	3060.596	-5236.4395	586669.25
He	1.0	4.504584	18.225248	19.118628	-5655.755	-7187.902	-2902.2366	-196.53319
He	1.0	19.298496	20.647448	4.3085165	-3264.5144	5195.6006	2176.8745	158670.11
He	1.0	23.937353	12.876749	4.4983	-7743.9453	-1522.5302	7704.5874	-105.23581
He	1.0	7.2039027	14.939374	7.015926	-2860.5344	-5260.908	-12580.446	470573.0
He	1.0	4.137031	22.640194	5.864626	2001.6182	1011.57874	1674.6349	117139.734
He	1.0	4.8568745	6.552015	12.52719	5797.4365	-7705.3506	1056.9817	4.1708054e8
He	1.0	14.929624	22.396467	8.082866	-4991.928	-10528.315	2238.935	714869.4
He	1.0	13.47049	1.7815806	15.070438	1646.4432	2364.1875	6529.8394	47.95315
He	1.0	16.788301	1.2897455	0.7917468	5269.5483	-3231.7615	2866.514	189101.64
He	1.0	18.354404	6.151088	17.291042	2202.1538	-3527.082	-1573.9299	5.8535275e6
He	1.0	18.370352	16.322163	9.632093	-7732.444	43956.07	-5850.683	529187.25
He	1.0	14.390369	18.773716	18.856985	18110.209	-19623.352	64628.94	1.0999051e6
He	1.0	15.11681	9.449384	4.3997574	6270.845	1716.0327	7795.235	-557441.6
He	1.0	17.882519	4.815408	11.98155	-531.58026	-7291.7886	-5015.968	-63.84991
He	1.0	9.853501	17.691559	16.707668	7524.5366	22.904821	-6670.1514	4.3976288e8
He	1.0	17.266483	20.828545	13.093786	8410.818	-17464.73	5362.364	6.11372e8
He	1.0	11.775534	6.9845724	23.699827	259.32864	252.71977	-3427.1016	-16.28918
He	1.0	0.67493194	7.3048916	6.8502054	-1950.4015	-2978.034	-3639.2288	767155.5
He	1.0	4.1499715	6.8661523	16.841183	1600.7694	-2530.4832	-686.9489	783833.3
He	1.0	8.379367	20.978153	17.11459	-1458.9806	2051.4272	-3035.8303	-35.179142
He	1.0	16.935888	0.9987331	19.978548	574.25116	806.108	-3262.9487	1.8422219e6
He	1.0	2.5783045	3.9974332	5.1621065	-3955.7893	445.25067	3905.4062	-248400.47
He	1.0	4.538941	12.215484	10.950195	13935.908	175075.81	-75095.17	1.739596e6
He	1.0	10.61596	5.071305	3.6552339	8103.9297	30413.576	-30311.32	459057.88
He	1.0	7.9594646	13.1162405	15.054407	2103.8225	-1783.4976	-504.7795	271592.28
He	1.0	6.164834	14.429391	18.646027	-10247.466	-92359.27	-17045.564	3.8373238e9
He	1.0	10.067663	3.5104563	4.747873	41745.184	29359.809	-12358.87	234124.83
He	1.0	6.870804	14.749646	1.845372	448.8828	2784.8176	61.08025	209140.86
He	1.0	6.654713	17.4434	22.25945	11825.598	-4788.5044	8969.872	6125.446
He	1.0	21.332195	7.497649	23.143244	27535.412	8658.785	-8091.6084	4.7306706e9
He	1.0	18.572344	18.591959	7.026677	7411.5996	-2577.3044	-12568.88	2.9791153e9
He	1.0	10.702869	20.128988	14.098521	9812.383	3342.6157	-394.45792	-97.3877
He	1.0	0.97079265	3.6784313	12.950973	-8395.441	-1763.1182	-10256.21	0.8612506
He	1.0	19.72413	1.7649552	14.451831	-2411.8972	-34.34309	-1727.1494	-4.6148233
He	1.0	17.605183	21.193949	17.347492	724.0658	-2954.8015	8580.862	8.777549e7
He	1.0	23.134045	21.537928	2.3032103	-5596.3877	-8735.526	-1349.7751	-256036.67
He	1.0	12.902647	3.1261325	13.562055	2480.8333	-1261.8174	-1330.3242	915099.2
He	1.0	2.993394	13.844757	17.78587	-1793.4835	-2363.0427	3842.2717	-35.661312
He	1.0	0.35369012	17.806175	2.7010975	1314.0968	-751.63727	3633.305	102.33063
He	1.0	18.3579	9.909732	15.96455	-3421.3054	-3410.21	-1110.0725	505566.22
He	1.0	5.5104985	14.406851	14.690187	-802.535	-8001.9233	10409.993	368871.84
He	1.0	17.086245	0.9302125	15.581279	415.60535	-2209.3916	611.0118	144598.05
He	1.0	18.903198	14.472544	6.0291133	-22506.613	6654.8657	-4075.0698	1.1165702e6
He	1.0	20.948679	13.109645	23.36023	3034.7527	-10056.62	-4486.4146	2.7299028e9
He	1.0	18.207878	11.529357	23.35655	-2202.16	-3775.1921	-7541.257	-153.53798
He	1.0	0.53865916	16.28643	22.89764	943.10474	5053.5503	2114.499	466683.44
He	1.0	23.5021	18.525831	10.021646	-5270.2217	1161.2677	-11092.537	-157.5297
He	1.0	12.838287	11.537882	21.534113	3551.244	-4864.7036	6627.305	28564.727
He	1.0	0.028841423	23.760588	12.826313	-2729.362	-531.9957	-2300.125	975560.6
He	1.0	17.984781	19.279934	8.804116	-7783.921	-3342.9133	17356.844	48612.54
He	1.0	11.6517105	22.155148	16.982384	-2003.716	-296.86505	-2085.4868	3.4489036
He	1.0	12.481898	6.4076114	11.219982	1557.3253	1501.9243	-3437.5789	572479.75
He	1.0	3.3651416	11.381488	16.483818	-4.525881	110.47434	185.68192	30.910543
He	1.0	15.414988	15.260511	10.25409	-3974.5967	-4133.621	-2089.4934	365325.7
He	1.0	1.1041695	1.6879406	22.999958	63735.145	-137938.86	98952.02	1.2661e6
He	1.0	16.73387	3.3440316	5.686471	409.8646	-1517.2793	3590.3093	-2.635321
H	1.0	16.044798	3.3979816	0.6955107	297279.53	-65961.07	-63005.06	6.6439757e9
H	1.0	6.585324	12.968872	6.1747494	316664.7	-468857.97	-142901.11	-1.5961105e6
H	1.0	15.854781	6.897055	5.2289624	-620997.4	106222.55	371493.75	-1.1837358e6
H	1.0	7.7321644	18.849773	13.377288	-150873.48	74809.65	306699.25	-545187.5
H	1.0	22.04805	4.0292077	5.553235	117263.49	-68455.11	315946.7	315033.53
H	1.0	18.223179	23.945452	23.767773	117948.34	450201.16	-580991.4	-2.020214e9
H	1.0	20.466421	5.4130993	6.172703	82762.164	-290535.75	553154.2	-2.8914222e9
H	1.0	19.776312	6.808261	9.336757	-341069.16	-251390.02	405174.0	325694.72
H	1.0	19.983408	10.511859	2.366912	90052.84	313461.78	-18703.193	-2.9809144e9
H	1.0	4.921658	10.15739	18.688478	-207091.64	-261030.75	356185.06	-2.413756e9
H	1.0	2.6932023	15.794733	23.024397	334919.72	-201933.2	-556789.56	-507422.5
H	1.0	5.1652637	4.420962	8.604046	23499.037	-136488.7	455016.78	-5.7187584e8
H	1.0	3.4867127	2.6686263	23.875965	-434094.34	-284295.94	-436883.56	-1.1187055e6
H	1.0	6.670248	11.140651	3.417741	-469586.3	-556317.7	-225503.16	-1.7588268e6
H	1.0	10.795966	1.8192521	19.046076	333297.28	378397.25	-409055.8	5.894107e8
H	1.0	2.4652128	5.2968235	15.696308	270396.84	-45474.49	165151.72	5.6435206e8
H	1.0	3.0383925	13.669627	22.431643	538119.06	-404495.9	105200.664	-5.4172534e9
H	1.0	2.3022861	11.216389	4.3655	335760.03	346612.38	-254598.73	-563500.9
H	1.0	16.391636	6.5801687	20.576553	81407.695	-4735.0576	84332.586	-7.483702e8
H	1.0	0.7381217	7.4226446	12.061227	657827.2	-584668.44	-144345.0	-1.5703379e6
H	1.0	11.46564	20.550508	3.9117785	183973.61	35887.574	-75581.805	58236.04
H	1.0	12.305934	22.881628	6.995029	-17350.027	-313699.03	249674.61	-2.4278226e7
H	1.0	5.730391	0.979323	18.743696	98787.66	88041.97	171872.55	1.0129754e8
H	1.0	18.24007	13.047637	4.4566665	128793.98	-482881.0	-424089.1	-1.2839392e6
H	1.0	4.398896	20.550266	21.826414	104629.625	-1.0911081e6	157517.9	-1.3716251e10
H	1.0	20.150923	18.356281	3.5518756	-163607.75	-92033.664	41886.777	628223.4
H	1.0	15.477255	7.4288454	2.864664	-274304.03	174203.69	38024.35	243185.03
H	1.0	20.7682	21.296995	14.607538	-119338.42	8673.704	-370246.3	-1.1739555e9
H	1.0	2.576956	22.051449	13.958859	-47806.402	-121323.44	-425708.3	324548.1
H	1.0	17.442125	6.7838035	1.3698727	-228576.44	176754.88	-145916.61	-8.458336e8
H	1.0	11.169509	19.578543	6.878067	-37496.6	-96014.11	69436.266	38455.58
H	1.0	0.16640571	16.741499	13.487808	-154064.92	175514.7	462122.47	-2.5939594e9
H	1.0	1.9048004	23.93541	23.061882	-40715.25	21473.354	-72801.35	1.4440098e6
H	1.0	21.312086	3.7241752	14.141081	-182183.19	-151682.36	117808.336	212634.38
H	1.0	0.22683728	8.115842	9.1000395	125215.44	28184.768	618883.3	-1.6801188e9
H	1.0	7.0475264	5.331113	7.408401	-244108.8	-220263.12	-198242.95	2.803304e9
H	1.0	7.8857737	1.8756547	19.655989	-38625.562	120369.19	316931.62	-141493.52
H	1.0	20.14613	17.937788	23.518831	-265186.72	-39918.234	-320802.88	-1.05096237e9
H	1.0	16.428677	19.481806	17.85107	-141396.34	-258864.83	-92321.0	-8.147824e8
H	1.0	20.770763	4.9153385	2.7444577	-503912.4	47896.42	102767.13	-5.3078364e9
H	1.0	10.112856	12.847689	14.128832	220676.39	269196.12	35624.33	-151602.94
H	1.0	0.7462933	13.178243	17.780884	480068.78	164678.05	256482.86	-44029.67
H	1.0	12.534038	16.499813	20.814404	240896.05	-120835.95	-276592.72	-6.813534e8
H	1.0	14.4560995	17.130148	7.018201	-15683.2	2720.717	214414.25	-94666.0
H	1.0	0.042541236	0.326542	3.3012524	-845333.8	206195.55	-126695.62	-8.640403e9
H	1.0	15.746017	3.615833	18.27561	-167151.75	607641.8	-171139.4	-509234.75
H	1.0	21.289543	6.6134324	21.296375	113018.72	227058.83	-9067.447	873955.0
H	1.0	21.05467	20.95927	1.9155258	-121880.695	-334284.34	-87153.02	1.9686486e9
H	1.0	15.352628	16.604206	15.911249	193228.6	-397825.06	165238.94	1.0338787e10
H	1.0	8.321023	23.840347	1.6814263	-205556.73	-71549.82	-162662.17	311737.56
H	1.0	4.199149	11.109346	12.438274	-82768.37	-197575.2	33601.1	-3.3226835e6
H	1.0	0.33793873	18.081913	8.214586	495210.88	-120100.36	3910.1836	-1.0480619e6
H	1.0	19.797697	16.35267	18.845034	-55072.74	-191734.95	91002.93	1.02626956e6
H	1.0	8.066683	6.7856975	16.9941	580622.3	-87703.99	-49343.895	-1.0101135e9
H	1.0	18.951614	17.880424	12.996843	-220204.14	79498.5	-158853.56	130691.06
H	1.0	0.06839743	23.61053	22.71849	-205567.84	-248550.86	944472.06	-4.0327635e6
H	1.0	4.5481453	17.639442	3.012411	313904.3	3859.5378	-398456.03	1.9536954e6
H	1.0	2.9700184	16.178986	12.44486	-42810.977	647603.25	-325780.47	-868781.56
H	1.0	14.380292	1.1892507	17.2085	-526166.9	-77639.46	223954.05	1.8787324e9
H	1.0	17.145111	17.352072	17.033607	-98658.06	-115095.914	-239153.3	447225.03
H	1.0	5.0074086	8.801324	15.993622	-265088.22	473324.9	-383427.34	-2.0383664e6
H	1.0	21.0407	16.470524	0.8503337	-337130.25	-30529.785	-77628.39	1.1639679e9
H	1.0	19.797392	12.657584	10.431307	798477.4	-329907.3	-307305.28	-1.9903361e6
H	1.0	23.954113	20.758982	22.111614	8102.591	-13099.525	402714.88	39049.438
H	1.0	4.141161	15.065848	5.6105685	655268.7	-671789.06	33051.625	-1.8643175e6
H	1.0	18.90947	14.426202	9.491565	138959.88	-247546.94	-85884.23	-1.1283232e9
H	1.0	22.800032	21.785147	12.424687	-112396.23	-266148.3	-284097.22	-2.0874799e9
H	1.0	17.946726	13.289898	15.153742	-305996.84	148851.44	217631.31	409989.44
H	1.0	4.014839	21.05716	3.563333	-181567.95	-578616.6	-29688.668	-518242.75
H	1.0	2.0081475	9.807832	12.063372	-15170.635	17370.45	288016.03	1.6654174e6
H	1.0	17.774933	3.1482522	18.424746	-131826.88	-44913.25	139386.34	1.1353108e6
H	1.0	9.117435	21.1942	20.526453	11535.366	-245438.58	-18392.123	9.6248986e8
H	1.0	18.910593	2.0301862	16.664066	351284.8	-123930.336	-293671.2	30349.107
H	1.0	15.572223	11.055729	0.2223698	-11854.86	737971.9	-516659.38	-2.689784e6
H	1.0	11.076911	7.298434	12.770125	-339407.4	-489416.6	-92834.8	89768.85
H	1.0	18.246357	15.44074	1.3703074	247522.33	-580669.6	256070.16	-652012.06
H	1.0	4.95664	21.817911	17.260649	233119.38	175457.19	-151453.75	5.1735977e9
H	1.0	19.97139	11.145218	5.3437643	136140.17	-314020.88	192329.4	5.4819267e9
H	1.0	22.080948	6.3233805	9.16869	-155437.84	-74583.27	50123.25	601912.9
H	1.0	9.093608	0.52039015	5.8394136	272899.38	271195.94	-27596.531	-5.618425e8
H	1.0	14.384882	7.211352	0.62864274	-169812.88	175548.06	277552.53	1.6638205e6
H	1.0	13.483421	14.156956	16.854269	117904.01	366615.75	109915.19	154185.98
H	1.0	0.54164135	17.76132	17.24625	683081.06	198301.84	180576.56	-1.0579329e6
H	1.0	20.310604	19.731695	17.768833	-6557.7646	-346879.8	-45913.59	8.132039e9
H	1.0	15.905428	8.393927	9.047031	-77685.72	124028.22	42797.566	304520.28
H	1.0	8.489236	22.094202	4.9478364	-296178.88	175504.1	116190.08	2.9264658e9
H	1.0	7.4719496	18.642475	16.58004	-80030.76	-120485.0	312726.56	-161136.89
H	1.0	4.5477977	14.060016	11.87787	-478249.9	121845.45	-322512.2	228352.45
H	1.0	21.926043	23.41251	13.907038	-278125.78	165060.98	92519.23	-196755.17
H	1.0	5.72361	4.311059	11.855359	253144.1	669535.2	431755.44	-1.2378683e10
H	1.0	21.131357	11.780195	14.088305	-543572.8	46138.414	-512798.53	-5.017707e9
H	1.0	10.921432	0.174248	20.506718	112690.29	-80904.36	-78638.164	3.7823834e9
H	1.0	15.444476	1.1206429	13.009179	-267419.75	508535.8	-258824.78	-349872.9
H	1.0	8.824894	4.2262974	22.768559	-516312.25	237608.27	203898.25	-1.2003174e10
H	1.0	16.371443	3.7622325	10.447167	41413.973	-327504.44	-31372.043	1.2327132e9
H	1.0	12.609741	1.7835444	3.2345026	-216478.3	-114010.98	-102860.445	988600.8
H	1.0	6.528282	15.016698	20.788982	-260054.39	-418698.22	-119409.21	790013.2
H	1.0	11.418097	14.296152	19.250078	-103974.9	464442.22	337507.7	-3.564034e9
H	1.0	6.343104	5.845846	17.32758	406024.62	416721.28	189577.55	367331.97
H	1.0	8.21677	12.6507	17.218939	-291148.94	27831.926	168158.44	8.582868e8
H	1.0	23.40158	12.055392	18.692715	-47328.22	237156.58	769441.0	-591519.75
H	1.0	16.655947	14.736093	19.169382	-5381.8247	515801.22	218212.08	-6.652496e8
H	1.0	16.509869	1.5942768	4.5576453	5182.654	-167002.44	303039.6	163604.08
H	1.0	13.973316	19.431208	17.051273	-312137.56	-203843.08	-13093.1	-99175.26
H	1.0	12.946137	18.839636	12.768083	75426.42	-280405.94	23319.58	472468.75
H	1.0	16.121634	19.030298	12.782894	335246.5	275972.56	68137.4	-1.5853907e9
H	1.0	2.0784276	7.7425814	2.1484127	-266688.44	-123200.87	34267.54	2.678503e9
H	1.0	10.63622	10.7722225	0.53825635	358929.28	301196.6	23389.271	-3.1277809e9
H	1.0	3.4834657	20.744854	19.187815	-110035.94	1423.0879	-377461.38	-816659.94
H	1.0	17.292408	8.957115	14.176136	-170477.08	106654.77	-106333.12	4.1452106e8
H	1.0	0.06531789	16.38232	20.945301	73260.57	390331.7	74748.87	27099.7
H	1.0	1.7826898	12.19324	10.599864	238355.72	162052.11	-26722.36	-2.468594e9
H	1.0	18.110353	6.7248497	7.257138	52777.95	-645610.25	138125.73	-5.549582e9
H	1.0	21.556278	20.525824	19.472994	99971.664	-199321.61	-356082.9	199449.3
H	1.0	7.277315	16.403719	4.2609973	133385.25	93235.484	519622.75	-915323.4
H	1.0	19.564629	16.745857	20.79368	-140585.86	466124.97	-45516.09	2.752127e6
H	1.0	1.5187306	14.137016	3.449776	117944.875	-61479.04	-220189.69	-5.7472046e9
H	1.0	16.841373	8.474175	6.9666386	33095.098	406468.5	138040.34	1.0455064e9
H	1.0	0.32888603	12.377114	2.0616703	-261584.97	-275128.97	941.75995	-6.386769e8
H	1.0	0.9708688	10.992178	18.407206	261533.48	283709.78	-241476.88	389346.62
H	1.0	20.601473	1.690205	8.447941	-152090.73	179844.67	254641.03	1.5908136e6
H	1.0	21.53281	2.915838	18.158134	403245.94	25186.719	-389055.34	-5.2844913e9
H	1.0	12.862535	13.330452	10.138398	217565.88	418397.9	176761.94	112493.85
H	1.0	5.865968	10.063176	21.181585	-130339.086	734348.56	276088.25	-6.9681705e9
H	1.0	14.151808	4.3319235	21.475006	-575859.6	324882.6	-632011.0	-2.2158608e10
H	1.0	8.32845	16.309015	1.3058649	-104203.59	264137.6	58971.48	1.2207091e6
H	1.0	11.940209	22.467588	20.580132	108444.09	336749.38	144652.56	5.8543616e8
H	1.0	14.940214	13.779355	4.230917	188405.16	-43500.78	3767.1165	1.5718644e6
H	1.0	5.1969495	15.3830385	22.556337	147591.03	401776.16	125102.414	-1.1449844e9
H	1.0	11.892313	8.8555	4.658585	-185025.31	150525.9	-53307.312	-3.898975e9
H	1.0	21.858982	5.464646	15.513644	-156179.34	411820.7	446076.2	721542.94
H	1.0	0.93372554	6.094068	13.838528	-439614.88	-190618.5	307141.06	-4.1650883e9
H	1.0	7.0543804	18.459759	5.3463497	-70216.93	509518.34	-6219.7324	-2.4632727e9
H	1.0	11.444555	4.530508	20.31619	-117009.97	-233433.45	285683.84	1.3177838e9
H	1.0	20.915346	16.768364	11.549558	-66757.53	-191827.14	32906.18	351726.4
H	1.0	6.6083617	11.404431	0.5029555	-339034.12	182313.89	128303.49	-1.1171469e9
H	1.0	14.74321	23.61227	5.699749	-176673.03	17893.064	362687.47	-1.1481024e9
H	1.0	6.5929523	10.702203	9.918174	-22953.164	-282881.78	6890.6704	157259.84
H	1.0	19.446112	22.965567	13.855713	410256.2	-471525.44	-188788.6	1.399493e9
H	1.0	14.287053	5.9411693	20.18126	-33759.824	-32135.85	347125.8	1.05430266e9
H	1.0	5.9841404	22.406433	23.633036	250412.66	231669.53	-249394.36	-349960.84
H	1.0	8.101614	23.582846	14.022384	-663542.25	-438956.62	162761.86	-621596.0
H	1.0	3.4705238	11.797829	20.180292	52675.02	10045.454	-200675.45	-1.6221198e6
H	1.0	13.308631	9.215871	6.5635676	319767.9	347860.97	-67505.5	1.7768389e9
H	1.0	14.80941	9.089914	19.96227	49463.133	-274997.56	100548.24	-48806.53
H	1.0	23.812527	15.155394	4.73734	71168.23	-172586.9	-773511.75	-1.312374e6
H	1.0	0.24312845	4.9663844	17.76441	-396168.4	-65693.78	-49680.508	5893.9346
H	1.0	12.09436	13.393535	22.253489	237976.16	-132031.48	-299751.38	283272.84
H	1.0	23.407692	21.385216	5.7185683	480881.88	-246739.39	-215290.47	-3.9420462e9
H	1.0	0.95837724	2.266923	4.5612063	514169.84	-132861.33	-179623.9	-5.8736886e9
H	1.0	23.523804	6.870638	16.979149	67677.336	98529.24	69646.63	551717.5
H	1.0	4.597309	9.797039	6.9165077	-64336.13	168397.31	129393.41	61749.754
H	1.0	14.256771	20.483372	20.022905	-65436.8	418185.62	-121235.305	33694.855
H	1.0	16.099224	10.949901	20.461405	58862.67	9356.531	-248966.48	397045.2
H	1.0	3.8008075	13.951085	20.232534	-196698.08	257510.16	251436.23	3.288564e9
H	1.0	21.985563	20.7883	4.205347	304004.06	-66099.266	36549.18	1.3308298e9
H	1.0	2.2772505	4.2031717	11.47385	64746.277	58560.047	-189094.83	1.9565425e6
H	1.0	22.504766	14.936096	3.2145326	-1.0695262e6	249255.05	-373424.34	-9.197643e9
H	1.0	13.571719	11.627229	9.339048	-132221.88	-408684.06	-153796.75	586589.4
H	1.0	7.9180875	0.425328	4.108873	-482668.47	-282162.38	-186249.62	-1.4276028e6
H	1.0	21.192865	22.29162	10.090294	-927.896	-64651.168	-352086.12	1.754351e9
H	1.0	19.950987	10.596778	17.061026	313559.22	429015.38	442128.4	-1.4611208e6
H	1.0	22.872566	15.597407	9.799086	-385750.12	-198072.75	267019.75	484593.56
H	1.0	4.577168	3.5533836	13.254566	-14292.464	-187461.14	-885516.06	-7.127369e9
H	1.0	12.76653	23.890543	13.712241	71691.17	-132603.69	172084.28	578590.6
H	1.0	12.271095	15.911687	0.33362752	-100747.6	-13019.582	177806.45	329836.47
H	1.0	9.247913	18.143476	2.3967505	150328.66	13473.35	-1730.063	4.781304e9
H	1.0	0.8074702	14.790661	7.6376166	438051.94	-180272.98	-206260.53	2.6057298e9
H	1.0	12.758142	23.569323	1.4042742	126119.68	216306.78	31410.576	619007.8
H	1.0	12.436793	11.667344	0.6925015	-331241.94	110555.305	-497615.62	-656491.06
H	1.0	17.299343	10.542984	5.1925693	-131574.25	-172238.36	484585.25	2.145913e9
H	1.0	1.083705	22.909397	1.6045375	249683.14	-485581.66	227932.95	-854738.7
H	1.0	14.250841	5.0126176	11.273548	-322836.1	-148243.33	-125221.76	232987.08
H	1.0	18.091743	4.959855	2.9045103	-159406.9	242293.92	-71068.53	-340091.22
H	1.0	16.465834	2.3662426	2.7166476	-550024.5	42854.59	630841.4	-1.357519e6
H	1.0	17.022276	11.795937	2.9832304	97612.62	171530.7	132879.27	1.1770198e9
H	1.0	23.165306	11.855969	21.83487	-766994.06	-104812.086	380761.8	-8.0764083e9
H	1.0	18.010103	23.632376	3.4349568	697641.0	430566.0	188342.14	-2.0721656e6
H	1.0	7.3554626	14.503998	10.961007	-206610.78	43165.49	105825.92	-2.9796342e9
H	1.0	19.520662	4.0067353	19.994034	791781.8	366607.5	643533.1	-2.486043e6
H	1.0	16.05239	18.650192	8.109157	-68655.79	51052.312	-223211.4	-1.1727271e6
H	1.0	14.578925	19.440628	0.90116984	-100650.766	-281136.94	111449.96	1.244731e9
H	1.0	16.512524	22.93149	21.438726	429951.72	25355.605	556174.0	-1.3483946e6
H	1.0	8.027162	8.676071	23.228605	-553448.7	-201011.44	-221699.72	-4.5700475e9
H	1.0	22.723314	9.329881	8.200384	89189.87	-360832.44	308171.66	-1.3542145e9
H	1.0	23.970156	3.918453	4.3037367	470386.03	-197380.69	108486.43	-674322.25
H	1.0	20.737257	13.805924	21.21598	60789.367	-117288.3	-395814.7	1.6371619e9
H	1.0	13.643801	2.3386946	4.9201956	163604.81	18209.523	180654.67	4.466298e8
H	1.0	17.797869	19.781954	11.006862	-144653.6	-128556.61	131942.0	133503.81
H	1.0	15.630293	20.530828	23.361595	238672.95	-328962.9	177941.3	-7.785459e9
H	1.0	5.253505	12.065181	14.540436	175346.19	188414.98	-39281.3	-2.0832288e9
H	1.0	10.774593	3.2180438	13.64482	-426826.38	-267209.03	95271.12	-594322.9
H	1.0	8.828896	11.093664	14.438751	23578.943	133157.38	390295.25	-375338.56
H	1.0	13.189148	10.498539	12.329885	-31582.299	-27036.002	72235.305	1.0502402e6
H	1.0	9.233899	13.69583	10.362304	370745.44	-262861.53	414415.16	-6.5992315e9
H	1.0	1.4150124	17.474491	0.8605603	-314544.84	-242296.98	59898.914	-281826.0
H	1.0	19.971474	23.071184	22.220274	-229079.62	-153333.62	273513.1	-143588.34
H	1.0	5.233571	12.211837	19.21548	374285.5	-336778.25	61271.9	-168655.34
H	1.0	20.538834	9.7344885	13.44339	-388712.97	465460.62	37393.24	-4.644618e9
H	1.0	12.818757	9.456046	23.342907	-171618.84	607432.4	70559.67	3.839447e9
H	1.0	0.48869142	3.1559744	21.895325	203612.39	-6378.714	-178932.34	-1.1680861e6
H	1.0	0.07934415	2.3288884	2.6170847	245208.3	-420081.78	-329233.06	-3.658433e9
H	1.0	15.403122	14.065954	17.476242	60598.633	-131525.48	-822692.75	-6.5330545e9
H	1.0	21.545685	1.4587673	12.644745	581425.2	314392.06	-266654.44	-756817.2
H	1.0	17.258656	14.32128	7.390082	-137282.38	182540.81	-61071.086	3.0193326e9
H	1.0	10.62402	11.371972	16.031324	-335336.06	-200964.25	251930.62	-345693.8
H	1.0	16.158764	20.728874	3.2001784	-528428.56	-88041.53	27192.244	-5.5308104e9
H	1.0	11.349466	24.033691	8.918945	37325.477	113094.59	-527653.56	-2.1265871e9
H	1.0	3.006582	6.511802	8.2847185	254310.8	347316.2	-322475.62	-344580.4
H	1.0	12.701231	13.750061	1.1089842	-271104.0	-472786.44	425969.75	-1.177142e6
H	1.0	0.51767886	4.839509	6.3180437	270514.94	310482.25	-14047.614	139649.72
H	1.0	0.57120335	7.9186444	19.57301	143132.33	-84102.13	136572.4	-61038.566
H	1.0	7.9998074	21.959417	8.690184	252409.66	-387567.0	224318.5	-327707.94
H	1.0	11.650621	8.640966	21.573025	71064.766	-34295.48	-49757.816	360257.66
H	1.0	22.99084	9.528774	10.65113	188325.03	-29025.559	260576.44	-1.6476349e6
H	1.0	5.838741	2.3380795	12.348416	307979.38	-43471.914	331748.62	-1.2906774e9
H	1.0	17.539845	2.677608	23.302208	-258168.48	325845.88	99491.74	830118.8
H	1.0	9.770293	22.505945	7.0476575	253145.62	482818.6	489004.75	-2.1073155e6
H	1.0	2.6002736	12.93297	2.2491689	-76712.72	68795.43	-314048.78	2.6549788e6
H	1.0	0.33044505	3.700568	1.2407581	373472.72	136039.3	-302685.03	-862500.4
H	1.0	21.277313	23.912153	11.29239	-365488.1	-108071.02	180511.67	-1.6588101e9
H	1.0	13.318245	3.236623	23.021244	231117.16	89201.82	-43985.41	2.291473e9
H	1.0	22.99048	2.784867	7.4577203	-35109.543	92150.07	-111873.03	1.3440864e6
H	1.0	22.71509	15.280799	7.0135117	-180884.22	-474731.9	-295581.25	-4.4414356e9
H	1.0	2.1536436	4.059373	0.22429916	138675.8	-361333.03	-135123.03	1.817619e9
H	1.0	19.206694	15.67245	4.4679008	30732.02	62832.523	13245.307	-6.165478e9
H	1.0	22.275602	0.44326386	23.821438	32461.848	-122827.375	-371689.38	-276882.06
H	1.0	22.997692	12.776173	10.270721	-662305.56	-47604.97	1841.088	-588996.5
H	1.0	5.4977927	18.644913	10.134621	114485.68	256494.75	376689.38	152704.3
H	1.0	18.235779	20.171648	23.72854	-97799.195	113215.05	-125306.01	3.4167898e9
H	1.0	8.488233	19.527487	18.796827	-390482.97	90246.086	209043.94	110784.73
H	1.0	18.495855	15.676488	11.691421	327418.38	38943.117	376206.53	-1.347679e6
H	1.0	20.861416	23.701904	8.101556	-73492.58	414878.75	223024.95	-706268.3
H	1.0	0.85474664	17.783632	11.793009	-200916.8	232828.52	3904.1511	1.2586671e6
H	1.0	15.572966	3.0222354	8.6564245	-343109.72	-159278.06	325600.06	1.6185498e9
H	1.0	18.368673	2.6104622	1.4794004	246169.38	565208.6	-468792.12	-6.749264e9
H	1.0	4.7089276	10.917799	4.450436	15670.546	333744.06	183189.28	3.713943e9
H	1.0	8.286046	6.8818655	14.301007	129938.73	13126.223	-219396.17	123695.78
H	1.0	0.054257713	19.903162	16.627785	-243685.23	69387.86	10785.745	-4.626679e9
H	1.0	1.7868046	1.8131006	16.800823	238074.4	45071.633	195052.92	8.270027e8
H	1.0	18.229965	0.3790386	21.660686	-281605.12	-300695.25	-167385.28	-1.7067725e9
H	1.0	14.082942	11.84999	16.841476	317671.38	257017.61	-59589.67	-265820.6
H	1.0	18.943594	1.5160264	18.77933	-245367.73	-453008.84	-87899.23	-5.9057363e8
H	1.0	12.598611	18.129587	19.61192	147222.2	-413383.38	-83322.57	-48690.734
H	1.0	19.57647	10.168864	19.54978	-251808.23	271555.25	-206320.78	-1.1007318e9
H	1.0	22.970066	6.601671	0.28516334	158316.19	2641.0337	-69440.86	1.69454e9
H	1.0	16.563648	21.002548	15.057436	-184656.78	-142422.97	-205575.23	-162120.36
H	1.0	9.617982	17.794575	12.821005	201884.42	359626.03	-15035.683	-331346.8
H	1.0	1.1840472	0.6772285	20.88926	-304365.47	-217271.97	347264.7	-487872.22
H	1.0	10.623733	1.4247177	10.719588	55833.234	64948.28	-251252.39	347536.06
H	1.0	19.78461	1.6347165	21.377184	330471.34	96135.84	-453311.47	7.350477e8
H	1.0	15.3990345	10.64944	6.3977423	172873.27	265767.78	-212536.1	152623.97
H	1.0	12.18297	20.071642	20.3592	262464.16	401503.44	36107.406	-1.9135228e9
H	1.0	4.573291	9.38545	11.446524	459014.7	208237.66	-253158.4	1.6818478e9
H	1.0	9.663357	18.144915	8.383662	458377.47	-202446.25	59341.816	-1.9793555e9
H	1.0	12.347527	3.1814053	7.727769	-9368.096	-203608.66	60101.01	-448672.56
H	1.0	13.816817	10.77091	2.6688085	108718.555	41710.555	335564.97	172918.12
H	1.0	6.206888	21.262766	7.6718125	-289562.28	72488.53	206499.66	313403.94
H	1.0	10.777203	8.350471	6.573575	-399959.66	-347987.53	211045.83	-2.1065585e9
H	1.0	8.011575	17.81813	23.992353	-81316.33	-136753.66	205808.05	288663.78
H	1.0	15.183964	23.435085	19.212952	-160791.08	-280396.03	56752.473	-1.4594958e9
H	1.0	7.4901175	15.014409	14.628208	257490.06	-374690.9	234944.27	-5.6286995e8
H	1.0	18.331526	13.485142	21.958569	-111406.28	310360.66	222677.6	-7.7073274e8
H	1.0	7.3693385	5.9489064	0.34318656	-353575.2	-8820.275	27603.795	69383.74
H	1.0	5.059519	12.101568	9.070375	240418.52	-169607.19	-376740.72	-3.8735409e9
H	1.0	2.867924	5.8482337	22.933361	-75376.1	-490545.34	115748.67	-222259.02
H	1.0	7.4686785	1.7915826	13.995	-379986.97	-62385.383	209599.61	-1.042492e6
H	1.0	19.700876	22.310091	17.148426	-691242.5	-99703.5	-118624.15	-7.166885e8
H	1.0	21.492601	13.192641	19.222273	275309.75	-62088.125	-314162.12	245864.81
H	1.0	12.1170025	3.7481995	3.08317	87903.84	206176.25	128234.41	2.6932012e9
H	1.0	2.5850844	6.256219	5.0959005	261896.66	-6740.988	27499.996	-2.9801946e9
H	1.0	8.0176935	3.2726104	16.671185	-213881.52	383522.97	-293539.5	-3.5660465e9
H	1.0	5.438454	1.9260973	15.190371	74858.96	-750007.56	172431.45	-2.1648195e6
H	1.0	19.56079	6.0142245	3.712576	382120.47	300260.72	-33008.84	-2.0635604e9
H	1.0	13.890647	8.614767	11.226731	-127747.27	127471.81	10428.208	82920.91
H	1.0	17.004353	3.98585	16.654778	595304.06	412343.34	-123917.36	-1.6345834e6
H	1.0	13.784039	16.166096	19.054417	-348907.38	-333601.2	514452.88	-981298.56
H	1.0	16.003374	16.351543	8.009945	388863.34	326820.25	-57500.082	-666749.44
H	1.0	10.801907	10.347021	19.103365	212323.12	18353.338	411420.0	-7166.895
H	1.0	5.225329	20.06407	2.0128257	-325602.62	57390.52	-277767.53	-304829.9
H	1.0	8.742222	17.03745	18.212204	578020.6	83002.52	-726004.8	-1.6992194e6
H	1.0	5.8849254	0.7046414	4.083475	-231281.39	-317719.4	-437178.72	-4.3296835e9
H	1.0	13.618905	1.7906425	20.985123	379174.06	22452.682	-224374.69	-486335.75
H	1.0	4.0075626	19.61284	16.03755	908.604	-131532.86	-135884.97	1.6305373e9
H	1.0	20.857477	5.3170958	11.918155	-305547.88	-98056.875	429800.2	4.472833e9
H	1.0	0.4084199	5.93579	8.4859705	381131.62	-236767.9	-263084.9	4.5002353e9
H	1.0	6.358781	8.763855	3.2141438	135937.95	237174.22	-123473.41	4.2607101e9
H	1.0	19.104042	7.978966	18.150593	-53534.3	248965.05	-422393.38	-797096.75
H	1.0	0.43273926	0.48277253	5.4341645	86008.92	301142.8	-143240.88	8.0429665e9
H	1.0	2.8011713	13.012411	6.8868833	-350640.34	-89602.1	-492702.16	88152.6
H	1.0	20.177332	12.11097	1.1769172	-42927.676	-304416.78	-226977.88	-4.1597699e9
H	1.0	5.7450595	20.593391	9.78907	-103199.87	303571.6	19619.049	4.2858025e9
H	1.0	11.529799	16.299843	19.060076	-139256.17	376757.22	-257484.81	418079.56
H	1.0	12.31946	14.742647	8.764404	110590.695	209487.78	181737.53	660135.5
H	1.0	22.48335	19.419138	2.8832436	396398.12	67190.92	-250563.89	9.977573e8
H	1.0	16.04063	5.5218945	7.9718437	197536.02	126394.6	650178.3	-3.733019e9
H	1.0	16.288961	23.736925	11.57315	70836.03	-20537.818	267083.94	2.3056402e9
H	1.0	23.065872	3.6171918	15.736903	214642.34	-174992.64	117247.53	-3.502173e8
H	1.0	9.889971	0.72903883	7.8599567	114498.23	-126166.44	-489380.44	3.2375073e9
H	1.0	7.9860983	11.882027	2.1449962	38810.93	194119.02	282803.06	3.7956856e9
H	1.0	10.7558365	0.9522154	0.8563939	290587.12	-93987.77	-200098.95	577739.94
H	1.0	14.270147	23.459293	2.899654	359495.03	284971.9	152119.52	1.3563325e6
H	1.0	1.4852352	14.354421	23.6807	-245171.69	-51205.53	-618020.94	-3.8569257e9
H	1.0	10.8316555	11.483514	21.012508	194444.7	-212743.64	451292.97	-345817.56
H	1.0	10.684695	14.568291	24.016405	33003.066	-179346.06	-297939.6	247651.1
H	1.0	18.412846	21.619	6.5494323	26931.36	-7359.2383	-321003.4	-121504.41
H	1.0	21.954306	17.258732	20.191347	-479412.75	241935.64	178378.55	-520271.8
H	1.0	11.018252	3.7500484	1.4000083	274808.22	-260740.78	-393032.25	-884494.3
H	1.0	22.784414	13.950625	12.358668	-251542.9	161216.78	24160.207	1.3999725e9
H	1.0	6.9111195	16.867422	11.18342	-704248.9	-109582.42	441543.3	-1.6954136e6
H	1.0	5.4138875	20.455967	5.81546	462549.78	-222445.92	123464.09	19515.121
H	1.0	17.490555	11.441317	14.794791	110394.94	-373875.03	61824.105	-4.5528525e9
H	1.0	13.016812	16.95931	17.386816	-122204.58	-357384.38	-123762.55	402593.78
H	1.0	11.345394	16.625286	9.959315	420.48563	112495.64	34890.336	-9203.731
H	1.0	22.07659	1.2806208	10.187412	-280530.1	-26643.658	-11167.86	9.214041e8
H	1.0	12.166428	15.827591	13.566482	681080.44	-34671.742	-241966.03	-3.704729e9
H	1.0	12.871063	7.192969	19.05353	39924.42	310621.66	574007.5	-4.0812956e9
H	1.0	7.0932345	1.8891747	6.8139105	55908.773	-92950.1	-15999.595	312079.4
H	1.0	16.070475	20.700409	10.614681	31409.008	-28291.844	-114070.805	6.68515e9
H	1.0	4.2614517	16.917698	23.712202	-175573.48	-165018.31	-109585.33	1.4487476e9
H	1.0	20.70849	7.436396	4.688334	-351176.25	-18309.912	478637.9	-101194.39
H	1.0	19.344784	1.878182	11.3845215	72542.66	514770.25	8628.84	-373878.88
H	1.0	4.2477083	4.7042284	6.843789	-238080.11	-187990.81	-34256.07	-1.9894912e9
H	1.0	15.528494	16.82325	13.437902	302945.78	331620.47	-353519.2	-466352.03
H	1.0	9.349537	2.4987168	23.981884	-421004.8	84721.91	-443913.78	-3.009354e9
H	1.0	19.392746	20.778656	19.346586	-236786.58	-206744.12	378810.47	-1.5905108e6
H	1.0	14.835591	10.822729	22.101662	381335.9	249660.47	-191581.34	332898.4
H	1.0	17.336315	11.245382	11.507422	33110.13	44318.086	-42707.09	4.8575526e8
H	1.0	0.34592506	5.1572495	11.263723	-618057.0	-90939.97	-136877.36	-737117.75
H	1.0	11.68086	5.3988366	18.386717	-8791.186	-186077.4	-85236.34	837811.1
H	1.0	13.441905	21.737432	23.582027	3577.411	-23610.967	-57583.52	4.1753917e9
H	1.0	0.28143382	8.124121	15.362533	332295.47	297003.25	-124909.914	1.8106592e9
H	1.0	24.049341	19.505072	5.1589913	103852.95	-88493.87	-158756.94	2.840359e9
H	1.0	7.0794134	13.74428	12.828959	190865.25	-91323.37	429528.66	-1.3841714e9
H	1.0	6.2368984	16.344809	19.062353	377812.47	44776.844	21232.176	-5.614199e9
H	1.0	23.77367	9.804859	5.5160646	90411.195	-135351.36	111218.4	4.7894973e8
H	1.0	16.49631	17.37231	3.8734672	169141.0	-436981.22	-337080.72	-3.81504e9
H	1.0	17.33272	17.45083	10.925503	-64051.023	-394131.66	218.58972	5.067138e9
H	1.0	22.24876	0.4179457	4.408298	11816.486	596680.4	172921.77	-2.3870362e9
H	1.0	9.274548	14.848612	18.644936	278069.34	-422384.0	-293174.28	254940.23
H	1.0	8.590641	3.9975488	0.9961338	-9579.361	312932.2	-161350.58	-4.9825165e8
H	1.0	3.3959377	23.03508	0.039846852	-224439.77	68409.27	-225457.02	-213390.94
H	1.0	14.73325	22.133644	16.16853	-97712.02	352795.3	-14345.613	5.724811e8
H	1.0	10.213732	10.470345	8.23702	146399.31	-502466.8	-389057.38	-905176.5
H	1.0	10.026608	8.632197	17.730028	87696.67	-118327.78	281740.16	334163.28
H	1.0	23.650476	21.275755	19.657352	280820.3	191547.88	245293.0	2.5823293e9
H	1.0	22.049273	2.6932683	3.7534661	288007.9	-220333.12	-347098.47	-2.2916058e9
H	1.0	0.18868567	7.1425405	2.3589795	141801.89	-335204.66	-664199.75	-4.3205294e9
H	1.0	14.540467	11.38658	14.171652	157176.66	5057.0034	17917.78	7.1058554e8
H	1.0	5.269934	3.622211	2.5948038	-250532.98	-199726.7	-301547.88	-4.9207516e9
H	1.0	8.545794	24.061552	9.448635	-326531.88	168032.42	313943.3	537738.44
H	1.0	7.872948	8.11715	20.566563	316604.72	-265728.56	155138.42	-9.640913e8
H	1.0	16.125845	0.05686376	2.8391826	-505252.9	-422841.53	493490.94	-1.8777029e6
H	1.0	22.695566	7.501017	11.904073	-99953.29	248441.92	-435370.56	-2.829017e9
H	1.0	7.9985976	19.048006	11.184194	164772.23	76029.37	708770.56	-9.223479e9
H	1.0	22.803713	23.587664	18.72254	212963.94	-368567.2	-158441.31	-1.30898904e8
H	1.0	16.57111	15.547023	12.4420595	-63736.402	54989.207	-337901.94	5.394505e9
H	1.0	6.4563704	7.0633187	9.961494	-415951.94	15427.8955	53541.594	-1.796269e9
H	1.0	23.234442	12.560584	16.693415	-214375.1	-203691.45	-70193.13	4.1817467e9
H	1.0	2.4365382	7.2070336	18.507425	-13337.798	-106391.32	-295359.94	-3.4273834e8
H	1.0	16.095993	15.545281	22.827782	90636.336	-50070.27	-233166.03	2.3472795e6
H	1.0	3.9413288	16.041765	18.10735	29926.914	196110.58	225647.9	251528.02
H	1.0	10.428186	6.486568	5.267043	220129.27	157649.9	176237.9	-442723.12
H	1.0	4.9413414	22.615082	1.734733	-49608.69	-22830.016	-191272.4	2.4625352e9
H	1.0	14.178141	20.154696	13.728707	137368.17	-185162.42	45843.973	-89711.664
H	1.0	15.267378	5.254076	0.7172584	-376505.7	51204.23	-43193.2	-3.5312013e8
H	1.0	15.139589	1.7954108	6.4293427	238757.81	210059.25	33079.547	-1.0425097e9
H	1.0	15.614271	0.43258247	9.652511	427039.0	-30742.186	-25633.33	-41870.46
H	1.0	16.947927	7.964808	21.93094	-31802.6	-95438.664	-212508.52	-8.144655e8
H	1.0	22.469215	23.405363	6.4272323	299141.22	51260.793	-62073.664	186502.25
H	1.0	11.916215	5.3409114	9.122384	-177712.64	339988.53	176484.1	-739031.6
H	1.0	12.266072	6.581515	21.321709	-529462.6	-76404.38	-293447.3	-68402.91
H	1.0	19.540363	9.624809	22.985977	179800.5	382603.56	580889.44	-1.5678358e6
H	1.0	10.532108	17.871609	21.65514	247287.42	-265103.34	80897.14	-1.1441993e9
H	1.0	19.89762	19.014303	1.4904039	17863.346	-314335.53	324880.47	-482117.16
H	1.0	19.411125	13.5916195	19.394745	32081.62	-379910.72	121671.73	-531136.44
H	1.0	15.19313	8.389818	16.352428	-426247.66	-110343.984	-411275.8	-184404.56
H	1.0	16.365044	5.2398925	13.461265	189251.4	276707.4	419358.34	-3.663478e9
H	1.0	12.619245	21.9964	14.7494	340193.6	294364.4	84531.82	59883.027
H	1.0	17.402843	8.38553	4.3674817	-247170.17	-209922.31	327796.16	979222.6
H	1.0	18.755827	21.863554	2.3101687	-165701.94	341075.06	-92806.54	4.579501e9
H	1.0	0.6044108	16.27885	6.316938	70234.32	-435010.8	-97321.984	-354811.03
H	1.0	12.120939	10.235719	8.916637	-309693.06	255286.03	-209325.3	-349847.84
H	1.0	13.193076	7.2513895	3.8635435	83502.66	-327792.53	445292.34	-80734.93
H	1.0	8.126582	11.900763	21.541454	90156.0	-395147.06	139765.19	4.8303958e8
H	1.0	6.0543776	16.385733	17.040895	62835.36	-202568.86	503390.97	-3.5128827e9
H	1.0	9.973153	18.050354	23.617477	-115443.695	362316.16	192612.02	6.890825e7
H	1.0	22.619293	10.354762	15.65655	-342782.47	430920.94	-770474.7	-2.1455272e6
H	1.0	6.7073593	24.072989	7.665021	-219797.53	-163865.94	-148510.05	-454178.9
H	1.0	20.197	0.03650504	3.4952652	-187041.23	34729.17	61694.305	5.07736e9
H	1.0	19.868391	18.573397	21.613752	-650662.5	292287.75	490037.4	-2.6355885e6
H	1.0	8.644738	1.7120591	2.341717	278851.66	-259146.86	565491.3	-875037.4
H	1.0	13.704436	3.1306643	16.639042	-404849.34	-69827.45	-107850.26	-6.1150896e7
H	1.0	4.434759	10.331546	14.448909	-507131.9	-408431.3	157066.8	-504947.5
H	1.0	8.518056	13.612706	0.7542849	33743.69	126712.44	255909.81	2.5378844e9
H	1.0	9.6776905	7.8253202	2.8816168	222146.22	-141183.62	60577.145	-1.075613e10
H	1.0	18.38881	4.5370116	0.49442136	418572.44	163373.02	-287318.44	-1.7400609e9
H	1.0	11.400083	21.473484	1.9087332	-357817.0	-132999.94	-269977.84	3.5686845e9
H	1.0	11.47534	14.1318	15.622229	248553.06	-330753.47	211103.6	-2.0882958e9
H	1.0	7.3907657	4.491093	18.307222	-648702.0	-57673.523	255864.05	2.4133757e9
H	1.0	6.8341727	9.47392	15.707687	240895.92	-88039.19	401166.8	1.0272751e10
H	1.0	15.819393	13.451317	20.498823	45927.766	121948.97	-141655.97	3.2536924e9
H	1.0	13.239917	5.973477	1.8261087	-319304.1	184390.83	-396360.97	-4.572668e9
H	1.0	11.116122	22.643492	23.706503	-363519.66	240178.12	-150927.97	-4.6064865e9
H	1.0	14.89098	13.761429	23.986002	-207718.16	210080.9	71812.836	120194.91
H	1.0	5.312727	19.38589	3.9650319	-130564.78	43642.47	-177062.28	274393.4
H	1.0	8.760047	5.7954173	2.5447116	-90018.98	160505.72	-255691.06	7.122669e8
H	1.0	23.899668	21.317139	14.568301	166369.42	-406295.0	235684.88	-4.22176e8
H	1.0	1.8162452	16.079458	2.185062	604271.06	347175.84	-44559.32	-783151.94
H	1.0	19.3191	11.564105	7.2809887	198273.22	103336.8	286134.1	-1.7911972e9
H	1.0	14.573935	16.619963	0.24903816	-27769.352	321145.88	-13011.11	-52952.67
H	1.0	9.09197	13.865574	4.1086345	44930.67	309481.53	478646.34	429791.78
H	1.0	2.650347	18.202364	22.038208	528141.0	-334473.03	-69991.875	-3.3459095e9
H	1.0	19.242706	7.0277867	12.830356	-184394.58	-147542.92	-104600.14	-2.8629686e8
H	1.0	11.304692	17.253275	5.357159	-84524.41	-71221.445	367467.7	616817.1
H	1.0	19.949524	23.319887	6.165398	27702.168	55164.715	291926.6	319482.56
H	1.0	8.077592	16.50982	20.449642	-211520.81	386323.0	-80594.43	8.1663836e9
H	1.0	16.557154	6.844473	23.593555	181989.81	418636.4	444234.78	-705254.1
H	1.0	9.047124	11.450068	5.703072	161904.98	-409717.78	-236741.56	-1.5743049e10
H	1.0	6.3192244	2.7439406	17.744673	-418010.22	-73332.29	-106915.17	9.0877254e8
H	1.0	4.046213	7.1026726	6.449542	-469947.62	-373412.44	-160774.11	-343725.2
H	1.0	15.180427	6.792046	15.122126	-416461.47	-17580.658	169231.62	-8.4791695e9
H	1.0	0.68236375	14.763205	11.94058	-124974.29	547434.44	-258039.48	-3.1873512e6
H	1.0	21.353786	11.1309805	23.28139	-80398.14	112427.586	47432.555	-513479.84
H	1.0	14.235665	1.2976023	11.323001	-303948.97	273293.5	-306296.88	-3.686638e9
H	1.0	4.6283827	19.267035	8.47388	77917.94	91627.16	255328.95	-986545.4
H	1.0	9.602623	16.04606	9.156684	807296.2	-177502.3	278841.34	-1.5493542e10
H	1.0	1.8149474	20.947355	23.691051	-145388.39	131231.56	213939.58	1.0487111e6
H	1.0	8.810714	9.815757	3.6961148	-82979.016	-554662.0	206798.98	-23427.508
H	1.0	22.35335	14.899825	23.705603	171784.98	-239105.11	206539.31	-7.216757e8
H	1.0	18.736868	1.269424	4.344185	171566.28	261257.25	-292946.47	-7.298774e8
H	1.0	12.325338	8.719793	1.1453819	16435.875	-70628.35	374317.0	859198.06
H	1.0	3.2866802	2.1361477	9.632067	-134716.77	-292934.3	211256.16	-6.1204004e9
H	1.0	3.3268046	18.348099	11.16166	290081.28	369462.44	688438.75	6.716536e7
H	1.0	8.86657	19.442974	6.580672	408002.34	-172172.42	-616408.75	-3.8263404e9
H	1.0	18.99882	13.286359	12.340092	-468988.78	281882.1	454860.7	-4.1398124e9
H	1.0	18.619478	17.63286	4.9857693	122784.164	-170506.05	265224.44	257733.14
H	1.0	7.603656	20.885054	12.99519	13387.615	-624018.06	57355.258	615245.4
H	1.0	3.6382477	8.140373	21.557508	94122.63	272096.94	-43261.61	2.628194e9
H	1.0	10.072587	5.1734953	8.573981	-353413.5	-529603.75	-55372.715	-4.4927457e9
H	1.0	20.712883	9.4333515	3.905823	-272044.16	-83644.055	-259741.39	-1.0090441e9
H	1.0	3.5041704	14.027206	14.130868	36869.96	-16429.207	209373.38	9.204095e7
H	1.0	21.485111	1.2932491	6.0814333	19564.723	-16638.809	-233990.11	135607.75
H	1.0	6.120679	5.7617526	21.715454	-32691.373	308356.9	99907.305	-5749.2754
H	1.0	19.706625	3.8455079	13.026048	4421.568	282531.78	-517261.47	9.940045e8
H	1.0	0.45594805	10.837564	13.828687	49888.06	150610.5	-131581.47	327131.1
H	1.0	21.228619	11.483982	3.8676865	-120963.125	446610.1	216800.95	114290.52
H	1.0	9.916991	0.71676147	14.346726	234417.94	-70347.11	253063.58	-1.3200988e9
H	1.0	13.173978	22.05306	18.992062	-174938.2	-282155.7	353497.38	9.6268826e8
H	1.0	6.8530054	10.896714	6.0225477	60735.316	-220100.31	-118897.25	6.041787e9
H	1.0	2.0808978	9.96469	6.8898087	346702.3	-388185.16	-791902.7	-2.0427979e6
H	1.0	5.2313814	22.911749	14.575596	10213.519	-13206.47	-105066.91	342397.4
H	1.0	2.098127	3.5832136	18.633038	259705.33	-161215.66	174248.58	158906.88
H	1.0	5.102316	5.17737	3.8267863	434755.12	-602.58307	381584.06	-5.1837005e9
H	1.0	3.6506367	19.283974	0.22384852	308559.47	-147180.4	-43013.168	7.281279e8
H	1.0	7.3581834	12.96974	8.281746	22736.59	-651376.3	-238303.7	-1.1028468e6
H	1.0	16.667404	14.983388	14.852602	-284369.8	-526628.56	-731785.44	-1.0007613e10
H	1.0	20.445353	5.0266447	8.364069	52385.69	-578193.1	-56554.45	-820510.1
H	1.0	22.743044	17.900684	23.848448	565686.5	300137.62	333020.16	-725113.25
H	1.0	22.981676	8.502063	22.61213	71819.73	-239402.97	145380.12	76344.086
H	1.0	10.090462	6.650627	17.04018	-273786.25	536757.25	156912.72	-4.388853e9
H	1.0	5.366151	12.897172	2.8594534	-298671.22	39949.535	208978.05	-25301.305
H	1.0	22.72554	17.091688	5.8550243	-586158.2	166001.9	75736.81	-2.0209695e6
H	1.0	18.467737	16.557941	6.8632975	206465.1	-143749.23	229021.75	-169520.73
H	1.0	20.74725	8.835644	0.49873537	94352.336	338034.1	374169.44	820008.7
H	1.0	4.845824	3.4155874	21.73387	144825.6	-172422.16	142909.27	3.139459e9
H	1.0	3.0468845	9.493882	17.875866	320026.4	-71353.4	-16003.294	385271.47
H	1.0	2.155833	11.867202	23.934664	-291925.75	-269706.38	715.6092	855272.3
H	1.0	3.7308831	0.5983072	5.3505206	-23477.316	275443.75	195171.23	-156310.03
H	1.0	7.2202697	14.319609	4.8076057	21807.414	-575901.75	38150.734	-505431.44
H	1.0	22.389816	16.963192	2.7076416	262255.34	-61371.203	-81611.57	3.721003e9
H	1.0	1.6856091	12.394711	13.311747	-127689.61	176017.52	396994.0	-1.6507319e6
H	1.0	1.3863156	22.279478	18.602587	-502279.2	397390.9	516536.97	-1.2555015e6
H	1.0	21.68591	11.152309	11.71459	117101.375	363265.25	-49378.145	-61858.33
H	1.0	19.193579	8.622203	2.1040025	257227.53	161659.97	235828.89	-171416.19
H	1.0	14.579717	20.251822	8.74307	409203.78	-35595.527	-368324.0	-117639.0
H	1.0	7.5995507	11.552372	19.12353	-156461.39	-498621.84	-122028.266	496599.6
H	1.0	9.791961	6.933612	1.084943	-17379.191	199075.03	-38140.77	4.704793e9
H	1.0	23.06799	4.4722395	20.658104	-102260.26	-252267.56	-144675.02	-8.3644474e8
H	1.0	18.666014	11.481928	20.804276	250815.72	50725.246	-115098.44	5.390793e8
H	1.0	2.3397827	20.276134	10.159977	249771.5	-3000.0261	-403134.97	1.329918e6
H	1.0	4.54602	23.060904	22.248962	351670.2	538845.56	77481.77	-3.1631565e9
H	1.0	18.389992	21.195538	8.464634	18705.506	-106155.83	-58663.164	-186233.95
H	1.0	6.665524	18.643913	19.201773	-368823.34	-119979.3	-441995.75	-746620.25
H	1.0	2.18862	15.871992	16.968506	231399.33	185201.77	-75389.95	-125005.09
H	1.0	14.136468	22.138828	11.306613	444086.12	-265540.5	-233844.19	-4.940686e9
H	1.0	15.470272	17.968042	21.219461	95536.32	115.88184	-4243.7104	96264.94
H	1.0	10.363589	10.070499	4.827993	-287085.66	58521.21	65424.625	1.4163344e10
H	1.0	23.218088	8.635021	1.240428	137929.84	-145952.25	175771.2	1.0071736e6
H	1.0	3.0535514	19.436544	13.118217	-218310.45	-119761.4	-208266.34	553470.5
H	1.0	6.5467415	5.612007	13.314726	-259133.84	186477.53	-199939.03	1.0394989e6
H	1.0	14.768975	23.992334	0.57286453	191556.7	-188234.97	155023.66	1.2124648e9
H	1.0	18.678661	6.4753513	21.371183	-62518.31	-519134.28	-58143.59	-2.0586074e9
H	1.0	20.28621	3.2834074	5.0897303	371053.6	-283533.94	-228754.53	-4.941478e9
H	1.0	12.831611	21.59223	12.773786	70317.914	347669.97	34045.457	-3.926483e8
H	1.0	19.990541	2.8367982	23.016323	-332152.28	113122.74	221803.89	2.3508936e9
H	1.0	17.475306	22.887943	9.53879	160111.78	28138.27	-28101.47	398290.44
H	1.0	23.52504	9.013695	13.875311	-15773.647	-97782.27	7796.8213	-1.1037071e6
H	1.0	2.8064084	0.7197415	2.8399665	-256419.48	-511088.03	332191.06	-6.688126e9
H	1.0	5.6574903	3.3500845	7.0216413	125472.71	228645.81	-352993.34	-5.1821916e9
1000
Lattice="24.079964 24.079964 24.079964 0.0 0.0 0.0 0.0 0.0 0.0" Properties="Particle Type:S:1:Radius:R:1:Position:R:3:Velocity:R:3:Entropy:R:1" 
He	1.0	6.7988663	2.144633	2.915737	33653.086	-37232.21	10663.52	1.3709736e6
He	1.0	2.3682299	16.128439	10.333625	2282.2378	-4369.1323	4209.0703	941412.8
He	1.0	2.302353	3.4197245	7.1788054	7040.9	-2759.1636	2786.974	-756131.1
He	1.0	1.0478715	18.870579	19.531889	-1725.3866	2946.0312	4267.3496	106.39061
He	1.0	21.094532	10.553537	21.305641	5408.09	-4806.531	-7202.343	-387861.34
He	1.0	4.7201023	12.4657135	21.824415	-4266.9136	-4452.787	1970.1608	-212685.69
He	1.0	2.232721	8.364732	14.191525	-4856.032	317.3939	-2005.452	247.34897
He	1.0	16.56096	23.762793	7.322934	-1159.3511	-7171.164	7346.545	-223.9949
He	1.0	7.3669586	21.36226	22.092464	3244.5308	-1754.5035	-3072.3367	5329.902
He	1.0	23.079302	1.2345052	16.5216	2000.1193	9365.185	13882.167	4.665261e8
He	1.0	6.02553	16.55584	6.907133	844.6902	-4771.6377	-566.4965	-47239.742
He	1.0	18.55664	22.210009	11.516997	762.726	3891.3914	4639.173	56.44258
He	1.0	16.6027	6.327247	11.691843	5487.8843	5969.451	3616.233	18313.781
He	1.0	15.647365	6.112562	9.952579	-8373.374	-2847.9014	-9768.551	9.66896e7
He	1.0	2.7635527	14.222176	10.904339	3094.1423	-1948.6135	1513.2617	-2.8762553
He	1.0	1.8765178	10.950365	2.0646203	-18548.85	-54532.402	8099.853	4.456706e9
He	1.0	8.249726	5.173597	9.652104	-14341.773	-5262.7773	-981.4501	-559.4653
He	1.0	11.135555	2.5888216	21.482347	8295.982	-6379.198	-5201.3354	48441.188
He	1.0	23.11215	16.9851	15.617809	-1181.1222	-4161.679	4240.879	-204525.48
He	1.0	0.119684644	10.476884	11.898128	-9157.817	7992.8013	-83344.73	4.365393e9
He	1.0	14.24724	4.411858	9.235118	1454.4404	2262.3616	-811.2005	119.30569
He	1.0	9.052363	20.448746	3.1119788	-3028.6987	186.09477	2769.0142	182961.12
He	1.0	7.3669744	20.450785	5.0259604	-36762.402	-8183.533	3371.951	637809.44
He	1.0	18.011305	15.070325	20.6486	8445.894	-1281.468	9343.693	1.1738524e8
He	1.0	8.533092	3.3985698	11.919441	864.43243	-2518.6082	1279.323	2419.6106
He	1.0	0.5053136	9.566899	3.187837	-3957.0823	1425.6727	-2909.2273	-249002.5
He	1.0	8.686912	20.430067	0.5809386	-9932.145	-10806.158	-2860.7925	-2.6713318e6
He	1.0	18.46247	17.496721	0.529829	-1838.1982	-827.12775	1421.7686	2.6117549e8
He	1.0	22.223257	23.05206	16.04433	-25730.459	38504.84	-28403.871	2.0631887e9
He	1.0	20.459156	13.579691	6.9242387	15827.609	-2380.0518	7935.809	131162.23
He	1.0	20.647154	7.7375326	11.005337	-2955.69	783.4404	1614.6615	3.3411972e7
He	1.0	21.454964	7.228104	18.871408	949.39954	5055.027	-4902.5386	-198363.2
He	1.0	17.276897	13.529419	10.921808	-2999.347	-1429.7745	-986.5839	10.194248
He	1.0	3.837445	11.195717	1.3934861	-1119.0157	7372.9097	-2411.006	-76132.7
He	1.0	15.546542	18.633701	10.187757	-1519.9235	-2091.524	6179.0664	178830.31
He	1.0	12.261396	7.869799	14.587535	-8577.897	-581.421	-28589.717	26512.264
He	1.0	9.364806	16.143631	4.4448123	8791.235	-357.60062	-4578.3657	-744099.5
He	1.0	2.433982	22.356827	3.1407907	14484.981	-5144.629	15673.973	32327.635
He	1.0	4.963523	18.447405	22.605696	3200.4023	-836.9901	4844.828	28054.582
He	1.0	14.165339	4.855056	14.098052	-134.76468	2426.9546	3974.6294	457932.22
He	1.0	16.027168	4.129928	22.268534	2881.9177	1392.8406	4543.5796	7.2639835e6
He	1.0	15.524699	21.556599	18.588827	6607.136	-1068.1465	-838.79816	610857.4
He	1.0	18.60753	21.14996	15.000382	-1337.7849	351.62915	2318.8901	9904.453
He	1.0	11.667364	7.6486144	8.277712	2425.6475	1834.228	-4921.018	5.1216954e8
He	1.0	13.118829	23.560173	22.238453	603.0786	-296.43393	1420.0564	421171.7
He	1.0	15.792994	18.210443	5.8381333	-881.04333	-18632.533	-701.38965	245086.97
He	1.0	6.6852374	23.63948	17.012697	-6078.91	3920.527	6430.2993	-935104.7
He	1.0	8.619834	22.608686	11.72551	-729.69214	-2766.4995	1173.952	425302.56
He	1.0	21.918074	19.055162	7.681079	-2952.4753	-1460.9939	2188.637	282217.34
He	1.0	14.526336	6.220684	22.818045	-2714.735	-4282.9473	4148.155	-1.7459037
He	1.0	17.22504	8.672637	17.896378	3787.4507	-10892.589	1462.4355	2.0890812e9
He	1.0	11.705129	15.934439	3.7338116	3418.6338	-5351.3237	1473.4799	252403.45
He	1.0	12.410891	20.058043	8.669929	-4534.3066	4418.283	-2346.6943	361410.72
He	1.0	4.343282	1.9368875	3.7196267	52898.242	33096.914	15036.502	169316.08
He	1.0	6.451994	7.943602	17.95418	1463.5536	2551.8533	5668.8496	174.02525
He	1.0	5.984598	2.9493008	0.62604946	5120.1836	669.3878	-8395.776	1.0943362e6
He	1.0	14.904898	4.8372335	6.223635	-280.4649	-2804.016	-2903.2722	120.36404
He	1.0	15.598716	21.841923	12.6706	7766.701	-18853.102	-22029.758	2.1823387e8
He	1.0	18.071863	5.173517	9.641617	1211.0658	1840.4508	-1993.7322	-22674.01
He	1.0	23.596487	18.651909	21.755455	-835.45294	-4917.303	1272.1333	-40634.066
He	1.0	13.370738	19.271885	4.3602924	3693.1619	-36.26645	8108.7085	-687190.7
He	1.0	3.1106558	21.062874	1.6752207	3642.3384	-5136.075	2363.6516	626370.1
He	1.0	21.930706	0.003635745	1.8365301	3738.11	-8057.6216	8503.068	318259.0
He	1.0	12.27699	10.051357	16.402927	1478.1661	3620.297	5093.548	376975.66
He	1.0	17.613123	22.989014	16.317797	-229.77895	-2471.6514	1013.6636	83.118034
He	1.0	5.52278	9.7044525	23.866686	11100.123	6763.701	-9724.597	284487.34
He	1.0	18.417147	10.031576	3.5341725	76073.195	-17751.912	-54902.06	124225.12
He	1.0	22.428394	14.324818	17.394333	6737.4473	-5888.4536	2960.242	-7.727775
He	1.0	3.1702332	16.9738	6.0359187	-26552.355	41801.645	14292.297	11692.246
He	1.0	11.100314	17.994122	3.4767263	45861.72	3479.8088	26424.486	1.443761e6
He	1.0	16.704418	20.387838	1.1054039	7120.672	-2021.2966	-2696.1848	1.0278729e6
He	1.0	4.1860366	21.960356	9.502866	1894.8518	-2257.4468	6949.544	-34.623142
He	1.0	22.465286	6.1255107	2.219907	-56843.758	-28661.102	-3346.5352	497911.6
He	1.0	22.668882	5.192893	7.1098495	-1318.8813	2856.6472	2725.4812	694562.25
He	1.0	6.6323266	8.005971	8.077739	3405.5938	-3013.025	-2233.7205	-204067.61
He	1.0	14.051643	17.772562	11.275374	91332.91	-77051.5	-142475.88	3.393533e9
He	1.0	2.3567042	19.481424	6.944991	6532.5376	3224.4001	1484.6539	1272.4456
He	1.0	2.669699	23.564623	16.923454	1895.8508	30720.48	8386.644	131806.34
He	1.0	23.878471	21.025692	10.518155	-1136.2738	134.2044	-4452.2964	285691.34
He	1.0	4.569197	24.078737	10.696978	-4086.1882	6273.2417	1129.9044	78.196266
He	1.0	9.802043	5.190602	12.69489	-813.4168	-795.2882	2251.0957	279.3893
He	1.0	23.066519	1.5652994	21.371996	3592.0283	530.7688	-8196.248	-687017.2
He	1.0	13.568613	21.227875	6.9870877	-16243.564	29244.537	934.1329	186072.55
He	1.0	2.386065	3.0648143	21.0553	12061.427	-782.1658	-798.45996	3.782871e9
He	1.0	17.556753	19.046534	21.567453	-7578.5347	1123.288	4178.1924	-161.62766
He	1.0	4.395697	8.659735	8.837543	1344.1302	3190.7175	-5398.164	-29.310888
He	1.0	16.767275	22.94106	1.4041656	-1124.2	-4048.4985	87.657845	8.970308e7
He	1.0	9.912444	4.072164	17.650417	1684.2659	339.1801	1227.6539	61.652576
He	1.0	18.84457	7.184393	5.453465	6610.303	5679.7554	3979.4937	53846.24
He	1.0	14.921649	1.8602564	19.037477	9897.628	8096.495	31589.564	493531.6
He	1.0	16.300886	10.138804	16.338667	603.0319	2055.2126	2945.7412	1.1165495e7
He	1.0	0.82963973	4.255703	14.86285	-6942.4863	-7683.163	2747.979	6.6493394e9
He	1.0	4.1868353	23.153202	3.903068	771.3999	7168.143	4369.993	-804304.25
He	1.0	20.253626	20.756626	6.7292323	892.5452	1355.203	141.85399	114.24898
He	1.0	23.683622	12.848369	23.65733	648.3524	501.8653	-2435.7678	211728.72
He	1.0	9.23574	14.742207	7.5569015	-31135.318	-100372.41	-136655.12	428499.62
He	1.0	22.19202	4.3602757	10.056456	-2244.024	-2270.3687	-864.45465	-7.175233
He	1.0	11.732172	24.037262	15.986896	-1247.3208	5430.2915	-1751.9023	11.695874
He	1.0	9.190675	22.057144	22.521526	2384.7095	3086.7498	7676.6616	1.6123076e7
He	1.0	5.486544	3.9693449	15.705094	-3945.975	-155.04288	-6417.7734	-328091.78
He	1.0	18.103365	23.284273	18.31252	-2856.961	-4048.529	-2995.8752	2.7356431
He	1.0	6.6452446	14.890186	8.959832	-6198.0435	-3129.2686	-287.5666	28.168257
He	1.0	19.758389	10.692418	10.302972	-9411.61	6971.568	2578.982	4.297681e8
He	1.0	11.107314	23.466095	12.040508	1534.0587	-7073.1157	-5494.6006	-122.35462
He	1.0	16.71228	19.679276	4.8488727	7164.9165	4059.703	-9278.025	3.5267453e9
He	1.0	1.5759766	15.055435	14.085526	3211.2747	3736.8958	3059.277	40008.574
He	1.0	12.608269	2.9789903	18.472296	-2586.6257	8270.556	1972.4191	-155.02602
He	1.0	10.799476	0.3632329	22.688091	-135.57263	-3313.6797	-1532.0024	5.483238e9
He	1.0	21.04545	14.57412	10.423964	-2174.7803	-1820.7844	2710.2903	6.9154195e8
He	1.0	4.7534924	0.0023245395	7.1689754	-415.0971	-7323.7197	3656.4438	1.4977057e9
He	1.0	5.7089586	8.313104	5.515057	36448.707	23625.957	-25551.496	619229.6
He	1.0	20.639921	2.8823497	1.0498239	-385.22955	3488.3936	-3712.1604	-228896.55
He	1.0	8.929514	13.276598	20.322538	7688.2153	378.38467	-4508.0654	5.4954268e7
He	1.0	9.48537	9.909123	20.96896	-2403.6157	15369.562	2889.2188	128865.69
He	1.0	11.538554	20.307755	15.9831	-11594.213	17.669538	-1351.9939	-1.4474966e6
He	1.0	8.465099	0.49478677	23.905254	-3080.7966	-6660.9727	-1970.0837	4.7221853e8
He	1.0	1.6477014	1.5524689	18.898767	-6139.3384	-943.4985	445.8285	3.7618534e9
He	1.0	8.205806	11.139683	7.6143055	62270.29	18896.46	83255.945	359760.66
He	1.0	7.972585	6.9188323	5.909733	3474.069	-2809.6638	-369.32214	193.81987
He	1.0	19.040674	17.225233	16.100508	27149.691	-5729.018	-18040.156	640726.75
He	1.0	1.7348138	23.735153	10.647071	-5703.099	-7886.244	-3875.0422	-1.0517791e6
He	1.0	12.350008	2.0616784	11.9617815	-4538.1025	3259.7725	1265.955	167.6276
He	1.0	17.325563	22.852226	13.005421	12558.25	18817.799	-0.7332701	9.2630874e8
He	1.0	21.950535	21.17964	23.070036	3850.6577	27202.35	32755.021	282111.88
He	1.0	19.952383	4.529982	17.394602	1761.2393	3383.5981	-4797.972	-149827.88
He	1.0	9.138863	2.587685	21.442526	-6263.1226	3195.4429	-7141.102	14606.657
He	1.0	1.2000444	1.8153846	0.9915312	-8282.85	-5684.216	11336.134	6.7077664e8
He	1.0	4.650333	21.266554	12.102693	-2277.2087	-5258.4565	-855.0094	-239311.84
He	1.0	19.51788	0.11940629	15.823639	567.53375	2004.7677	126.54706	2.6004337e9
He	1.0	2.8856168	4.686018	13.370152	-43149.082	31383.982	5932.0464	436271.47
He	1.0	20.31396	18.92961	10.664301	1904.6127	2556.0752	4815.562	288691.62
He	1.0	8.911804	4.0648613	14.120337	5062.1997	604.44183	3050.6409	16.151484
He	1.0	8.736848	11.359336	0.26549855	-14636.701	-3359.272	16701.703	1.3683302e6
He	1.0	1.4021325	14.916157	18.719664	-287.54025	2090.4365	-1878.3143	7.376364e8
He	1.0	4.742117	17.849642	15.179045	-2186.873	-0.9739795	-995.1872	602203.56
He	1.0	14.902149	12.975098	10.61716	12865.7705	-3632.4219	3952.5579	4.34667e9
He	1.0	15.00976	17.324587	2.07775	-6452.963	16116.905	41119.203	2.9231974e9
He	1.0	2.1264591	6.885051	10.23319	-4438.6963	8266.968	14508.639	115570.71
He	1.0	23.48313	2.8331769	18.904285	-2583.353	-1427.1602	1627.497	4.342341e7
He	1.0	22.83814	1.9066272	1.0636637	22681.16	72261.68	56378.188	8.2576906e9
He	1.0	19.31062	3.3015554	8.489243	1071.9658	6081.5396	1724.3744	7.214982e7
He	1.0	6.9752088	14.1732025	23.165161	3170.053	699.602	-1916.1145	113513.32
He	1.0	13.258957	0.060317747	19.835339	2442.5894	-1163.4218	-3190.4548	77.3319
He	1.0	10.368689	12.4838915	2.3568587	4955.928	-2141.5747	5253.911	299967.06
He	1.0	21.772297	17.840532	18.265518	-1612.043	-3728.102	2270.4404	105999.664
He	1.0	3.3737583	7.8263726	4.0106015	21144.455	44777.055	-20393.713	4.6190768e8
He	1.0	15.571417	14.484807	6.23525	12612.501	12816.515	49000.992	15182.011
He	1.0	19.474213	3.6987774	10.495931	8856.22	6480.802	-1302.9108	95561.08
He	1.0	17.129171	14.675115	4.895313	6325.5605	1596.0504	3985.3374	1.0970793e8
He	1.0	13.570753	18.784775	21.29586	4209.243	6298.519	-8176.048	1.6994913e9
He	1.0	18.57577	10.179943	13.116618	3500.8374	-148.30817	-4886.4395	291809.8
He	1.0	10.089965	12.818351	7.1779833	55215.508	62780.2	95879.2	8.858967e9
He	1.0	14.053579	16.227571	4.281205	1187.1394	1087.816	8143.187	-636042.0
He	1.0	7.8651786	1.1517632	17.281164	2897.146	-4957.2505	-9385.914	-1.4518026e6
He	1.0	5.9831176	12.236594	12.41703	-61512.938	-67858.016	-22486.53	1.4477662e6
He	1.0	23.07129	0.9443966	14.548295	2824.9197	549.03644	-18467.684	607872.9
He	1.0	10.53597	22.005732	9.747643	-3378.3503	-4422.797	-810.7756	-228788.16
He	1.0	8.139386	18.657736	20.679735	58416.87	-8800.5	50542.766	52650.574
He	1.0	12.69847	9.2084875	18.17301	-5626.4795	3356.534	4357.339	-110.93448
He	1.0	4.4157047	6.5716023	10.019656	27477.193	-8501.117	26998.344	1.991068e9
He	1.0	22.188879	15.404384	19.347158	-70.26539	629.0559	2491.3032	183.3833
He	1.0	17.87692	11.483763	9.068574	262.8243	278.22357	2021.189	444303.78
He	1.0	7.6555486	9.776637	17.908695	2253.9258	-2149.9478	2646.6438	921485.06
He	1.0	4.0572085	2.1119275	7.2002587	4238.1333	-1139.8467	-5363.7583	271188.6
He	1.0	14.440418	6.735138	8.420877	3223.0933	2047.9799	-6186.706	2.4670134e9
He	1.0	2.7791238	4.6325626	8.958129	-6921.7026	-6802.8257	-10395.123	9.888283e7
He	1.0	0.76836073	7.849206	4.8400373	-3353.3855	2386.247	3643.2407	85.570984
He	1.0	11.30705	13.24245	12.549308	7654.534	-4005.8523	7001.275	1.8637916e7
He	1.0	22.113483	19.90481	15.215035	4245.1514	-3154.0796	2934.3347	296472.6
He	1.0	9.621639	14.52043	16.361225	-1137.3442	-2192.01	73.22348	1.0500927e9
He	1.0	4.319293	14.228275	9.33219	-7352.3564	3826.986	-2086.458	813.4996
He	1.0	11.09034	17.81521	1.182905	47242.477	-10437.48	-48182.496	394653.94
He	1.0	14.241235	22.47919	20.858343	-7178.7188	111789.68	40216.543	8.078479e8
He	1.0	10.188751	22.32416	13.537044	970.186	-1945.8555	-8981.678	-159.59814
He	1.0	21.082163	16.068155	22.537725	-1045.5746	-2177.1528	451.86703	297625.84
He	1.0	9.850879	19.042307	4.8078485	-1342.1031	1256.2953	-2489.499	1.7998398e8
He	1.0	22.631174	3.2450893	22.963438	-795.5685	8983.772	1266.1501	-980833.4
He	1.0	13.295297	13.680224	12.542672	-1483.7838	-733.4238	931.4233	172665.3
He	1.0	13.051097	18.141296	1.3115342	11255.299	79.41363	5776.3164	44868.94
He	1.0	9.533674	16.124971	15.109467	2005.6439	955.70355	3880.0327	1.04820744e6
He	1.0	13.461001	4.43955	4.8283815	4675.4043	5758.6226	2829.1548	-660734.44
He	1.0	13.000567	14.278742	3.9650466	-45.123154	1361.5764	-5014.7266	5.2280858e8
He	1.0	21.216305	9.595049	18.325998	-952.4281	1419.5242	5616.1313	307302.75
He	1.0	4.569925	7.988637	19.324398	2846.4592	1521.1735	-1699.4486	-131473.84
He	1.0	22.70051	8.058146	5.1067786	-5316.406	-6658.1255	1652.6871	18456.455
He	1.0	17.641253	3.7715042	14.096787	675.9335	638.0172	4295.375	-99346.22
He	1.0	3.9081857	1.9198865	18.310724	949.9168	-2037.6085	-599.4715	12418.097
He	1.0	9.516303	20.689812	11.132019	-3363.8098	-516.01917	-3630.6707	-31.257488
He	1.0	0.012418658	15.33946	16.8938	3060.3982	1598.0272	4017.7017	3.4667468
He	1.0	21.829529	9.6239395	6.183771	-1938.606	5993.1953	5973.874	-251563.81
He	1.0	1.7088382	14.381052	20.894897	23833.408	9857.712	24190.326	276400.78
He	1.0	2.505817	18.037832	9.216294	747.20624	4359.9775	929.124	-36.776367
He	1.0	17.176804	1.765437	7.3978615	-4027.1477	-2668.5884	2570.535	-26.113745
He	1.0	8.103036	16.695286	7.319989	-489.32687	5566.082	-37.894024	12340.51
He	1.0	22.5705	9.89911	3.2728622	2732.444	-9227.295	4397.0903	-1.5831358e6
He	1.0	22.18512	15.385897	13.932458	647.58795	4847.8677	3604.0583	-66.48419
He	1.0	21.441435	13.633747	15.666069	-3948.8132	-5556.666	7786.1196	-1.15997e6
He	1.0	10.393329	12.300597	9.49067	888.2459	5532.245	-5503.3574	1.4777795e6
He	1.0	16.911459	14.379741	0.15406829	-3472.7183	-2171.1113	735.369	3.6901688e9
He	1.0	6.509585	2.1868236	8.746945	739.56366	2075.612	-1365.4557	23435.418
He	1.0	7.8470626	9.198809	10.308325	-64.0973	-661.2816	2470.0046	3.7764547e8
He	1.0	9.211623	16.456417	22.225214	-5139.907	-15650.495	-20123.986	69345.54
He	1.0	10.565693	2.0143106	3.250292	202102.3	52030.66	77133.23	2.1224603e9
He	1.0	15.78579	17.318642	19.094843	19081.434	-21423.545	3223.6863	1.9613035e8
He	1.0	20.340527	0.7575746	0.606896	5346.674	-2223.936	-3041.663	501948.5
He	1.0	4.62018	15.357196	7.7084765	-1916.4011	-5302.0923	-6127.5645	5.5251035e6
He	1.0	13.839845	8.7225	9.197474	-8713.575	-3925.3037	10192.154	5.616926e8
He	1.0	6.7810225	23.964167	12.077387	-4944.236	298.03708	7446.716	-38.87589
He	1.0	3.4169888	0.98922664	15.820135	-1048.6041	3925.1536	-9139.535	9.219572e8
He	1.0	11.22733	1.2127142	5.2504144	-968.89874	-2780.7466	2328.3838	578091.9
He	1.0	2.3925617	8.477369	16.23832	58274.03	8717.456	24660.832	1.1796658e10
He	1.0	5.0741873	2.575185	10.424853	-3589.1877	2809.6118	-4549.3936	1.1455224e9
He	1.0	17.307985	2.6371377	12.478131	-2254.3904	-3696.1985	-5894.163	-24.73861
He	1.0	10.621828	18.167461	14.693417	-275.67358	8875.83	2421.6467	177589.23
He	1.0	0.9307933	22.766167	6.336993	601.53577	-261.1335	3512.3313	3.1240718e7
He	1.0	4.2350802	0.34906086	1.4501135	-2230.7583	-1186.355	-1937.0449	1.786524e9
He	1.0	9.547952	19.847008	15.790737	1584.793	1813.0392	-195.18639	762652.94
He	1.0	9.191097	13.493044	22.299543	3556.1926	8447.612	-2759.8694	-697145.44
He	1.0	1.7931423	18.508615	5.2918267	-4459.1406	-4577.619	-2830.5447	130474.0
He	1.0	2.7788997	11.25483	8.911927	-3854.2644	3344.319	-4596.9785	151.01683
He	1.0	24.004576	14.497775	20.020952	-31587.842	-19070.73	-16620.78	213747.36
He	1.0	2.4853926	10.220456	15.056911	464.417	12102.71	7200.9746	3.3122683e9
He	1.0	13.112193	11.366481	6.412706	248.22386	-6574.439	-603.5527	-52696.74
He	1.0	14.78432	22.004496	1.2010618	1682.504	-1584.3888	4006.2578	1.8625926e6
He	1.0	22.271082	5.7511177	4.274803	2770.1785	-7155.185	7041.9146	-551295.06
He	1.0	2.0309877	9.385362	21.654392	4731.4585	3636.3757	1859.3043	41414.594
He	1.0	10.684953	8.89335	23.939701	8429.39	-797.4099	-2228.2483	7.995601e6
He	1.0	12.51714	18.626944	10.269238	2036.3837	-3922.982	-4300.764	-6.2101316
He	1.0	15.703724	21.269852	6.210606	5901.0225	7915.733	2248.946	4.0558576e8
He	1.0	0.50527346	9.73586	16.859358	-1266.6372	-1285.2848	9943.722	-645497.6
He	1.0	7.37731	3.0464356	10.327621	8247.426	4219.65	7340.37	1484.897
He	1.0	3.5401263	3.5556757	17.211391	-3278.403	201.9317	786.2626	38196.28
He	1.0	21.301065	20.348013	9.383537	-8688.483	3142.2095	3808.778	-828528.4
He	1.0	8.910964	7.5846334	8.420631	-2389.7756	5167.5728	376.5932	-332823.97
He	1.0	12.8079195	19.87808	2.5220618	-1850.8099	-6409.0728	-2596.096	550964.4
He	1.0	5.920144	7.779259	14.516627	1034.599	-4514.4204	1116.6965	4.4174912e8
He	1.0	7.701146	21.454187	19.133799	425.86203	5251.3438	-5070.581	8.007765e8
He	1.0	17.602037	8.60263	23.879345	-3488.153	-4173.0005	10047.418	584892.8
He	1.0	10.540658	5.389847	22.319548	42323.91	31894.068	-10047.068	445006.1
He	1.0	17.575745	4.9300103	19.687927	-5720.2476	3204.406	-628.5498	-512435.9
He	1.0	6.097008	8.278365	12.590885	4098.6235	-1882.5867	-2617.2798	21528.365
He	1.0	6.7848334	0.37665883	22.762148	-3188.9426	4311.604	-324.3944	68.62753
He	1.0	12.587029	15.076478	6.139025	1496.7021	3296.2883	21.812605	-2.6718707
He	1.0	19.217499	20.491533	21.30448	23370.45	-29864.023	-26283.152	294052.0
He	1.0	19.816084	6.6066823	15.45043	6003.0806	4607.719	-6110.6123	-182.45622
He	1.0	0.051745042	21.218124	7.6379347	4751.1987	-1909.161	-1282.1321	453794.72
He	1.0	12.074652	3.4433753	10.461409	-852.6372	-2520.2983	6303.8823	211.22957
He	1.0	19.351067	23.991655	19.988478	10538.169	3866.442	-12903.54	5.9825786e8
He	1.0	5.362942	18.2743	17.312712	-7506.8877	-1463.308	-6546.62	-1.199602e6
He	1.0	12.022238	13.350917	7.13936	-19687.998	-46331.137	-60313.145	1.3161869e6
He	1.0	21.456451	19.938967	21.600569	-10787.595	-31672.918	28577.822	371973.56
He	1.0	8.792844	8.161692	12.409943	1001.0666	-537.0561	1268.266	3918.0947
He	1.0	2.2489192	13.036219	15.854804	1416.6798	-1660.4897	-4918.9844	-225727.3
He	1.0	5.368198	17.386099	5.1607995	-429.4069	2332.5754	-2394.3042	-119189.555
He	1.0	20.812914	15.772996	7.60875	1420.8578	3341.5803	825.3583	85843.78
He	1.0	17.022	6.756621	18.682175	22073.418	10324.278	-59576.445	3.1157216e8
He	1.0	4.2763033	15.86285	1.7003881	5217.877	-2993.6865	3564.7075	-201411.7
He	1.0	7.8766837	3.7568781	3.6797605	-3123.8364	-32.305286	3883.09	95.60298
He	1.0	10.737551	2.9867475	6.5436296	6399.0186	-5128.81	9204.01	116202.75
He	1.0	19.399464	7.2413325	23.53481	-27006.283	-3249.0393	2860.0974	170294.3
He	1.0	15.2228565	14.31407	13.513939	-40123.984	-25111.486	15957.023	2.1158008e9
He	1.0	9.829268	23.261229	3.5459912	-5534.1816	-789.221	307.01782	4.3334056e7
He	1.0	1.7183747	7.44398	21.24627	-24539.07	-2514.8662	-145.03865	5.7958794e9
He	1.0	7.8876333	6.6710305	22.105436	2904.3022	-116259.6	-33096.656	2.7498624e9
He	1.0	17.474762	10.819116	7.225899	-3334.6658	-8469.574	4733.4077	19175.854
He	1.0	22.7721	3.3110628	11.692057	1017.6149	-4091.875	1498.8861	25.78599
He	1.0	14.435841	8.892889	13.524588	-31.019783	-2147.6995	2911.8218	159815.0
He	1.0	3.8052294	10.238204	22.993862	-5702.8486	-586.37476	-5455.724	7.4603736e7
He	1.0	20.690502	13.853255	13.288475	5799.9556	8011.779	7793.407	300238.5
He	1.0	5.2083354	3.4201345	4.7185755	11708.961	9736.97	12611.1455	1.1143702e9
He	1.0	16.607952	11.586586	18.516409	4635.629	2631.0874	771.3519	188.93987
He	1.0	20.176888	14.622628	0.33460853	1834.2507	11177.372	10935.116	8.9376584e7
He	1.0	11.860381	4.802665	12.240718	1313.4869	3044.169	816.0343	438043.38
He	1.0	12.126707	11.86069	14.672069	-986.9765	3101.172	-5823.314	-218910.44
He	1.0	0.051940557	13.337049	13.977851	-6466.716	834.7459	4882.047	69278.72
He	1.0	0.5677329	23.668985	15.971815	-5058.3057	-1132.5729	2403.9534	-63.106655
He	1.0	11.734403	23.830942	3.3514428	7289.3384	-3629.552	-3683.9805	3734.0952
He	1.0	11.574554	10.671835	2.751632	-2388.4592	-3696.7634	-1534.3164	765516.1
He	1.0	12.77664	10.025581	20.191248	38095.74	61364.08	-73549.11	3.0974254e9
He	1.0	19.09535	13.639545	2.16357	-4101.6577	-4253.224	-10176.433	7.0330264e7
He	1.0	14.775495	8.332965	22.800537	-1954.9027	-1780.1055	-3056.8008	497498.03
He	1.0	7.350141	6.871181	11.91035	-2782.4346	-2604.7893	-1415.7183	2.169951e7
He	1.0	6.0718055	7.727897	0.18962465	9417.701	-4278.0093	5655.6333	-60.549355
He	1.0	21.504047	12.052772	8.007156	-1587.5925	1641.1772	-3024.6475	33.86104
He	1.0	23.306574	21.65163	16.928492	916.8585	1704.2852	24234.47	625263.6
He	1.0	20.755579	9.728908	8.86712	9685.532	-18430.121	-9639.351	31826.27
He	1.0	5.0744333	8.891313	1.5520556	-5878.6587	337.2564	9000.974	1.347778e6
He	1.0	18.826698	14.216377	16.915705	810.4818	2984.603	-6076.734	1.5001574e8
He	1.0	9.62683	8.060484	21.944096	-2433.0195	-5804.229	-2216.0762	64.7218
He	1.0	15.773822	12.476804	12.872282	435.1277	256.7228	-3395.8855	496096.72
He	1.0	12.503215	18.442352	23.175722	4090.514	-413.9219	-3489.0452	-327914.75
He	1.0	5.313731	15.889808	3.6814904	-13138.807	-437.556	-1565.7595	1.4360472e8
He	1.0	22.2267	12.571804	5.86863	-2176.5105	-5541.2236	8754.266	-1.0567306e6
He	1.0	5.620259	3.0830886	19.63358	2532.4495	1751.0978	3774.1562	1.5970225e6
He	1.0	12.76053	1.5780369	0.23910412	12973.686	1723.2917	3251.6248	2.500598e6
He	1.0	16.007631	0.0360153	17.110626	5192.3486	6208.986	3215.1592	2.9226502e8
He	1.0	1.0638453	21.129053	4.0796633	5323.674	-6427.682	119.70087	-732562.6
He	1.0	21.610447	18.280258	13.858894	-4109.1304	62.74201	-7381.5356	-169519.56
He	1.0	19.024227	0.1059444	8.838852	140.7111	-1810.4038	-805.0284	8.858743e6
He	1.0	11.907046	4.8151765	23.658192	12952.195	-1653.7644	5809.9917	4.2108188e7
He	1.0	10.267542	6.413847	19.87423	-688.9562	-7878.023	4123.586	30800.607
He	1.0	6.0280232	6.450691	2.5187442	68.240685	13386.731	1684.1621	-177.86565
He	1.0	6.5069313	22.596748	4.6120095	-81378.55	17151.748	-11922.479	797543.4
He	1.0	2.9822617	8.688353	10.42736	3663.5066	2733.4338	-247.43991	1.737261e7
He	1.0	22.992092	5.819802	22.20197	3344.5632	-6935.7964	-1415.6177	232098.05
He	1.0	15.2083235	2.0250864	23.396769	-90977.25	-105856.43	-39263.91	372138.56
He	1.0	10.720475	18.345707	11.119032	-1335.1617	-743.9391	-5839.2705	-41.234596
He	1.0	16.358202	12.87189	9.23284	7157.019	-2905.3374	787.8934	-209031.78
He	1.0	2.6162531	23.918665	12.675532	-2340.349	-1279.6417	1124.3387	-1.6559973
He	1.0	1.3095167	19.944239	14.535495	1508.007	3334.3032	-2994.4255	645326.5
He	1.0	19.5782	9.552564	7.086017	4691.325	324.66315	5457.697	5219.941
He	1.0	13.449814	12.067569	19.709835	-538.4633	6309.58	-22912.71	1.861311e8
He	1.0	0.7146177	12.669278	20.645443	-8022.873	-10749.183	1000.0511	5604.496
He	1.0	17.965433	4.4554677	6.9223614	3562.2627	-3572.2148	3127.1191	4.2274538e8
He	1.0	3.1761308	7.6381125	12.35522	-3216.6436	3026.2126	2092.742	5.9752588e7
He	1.0	23.50813	16.309956	11.632389	-79464.04	51954.188	-55281.1	281817.9
He	1.0	20.483154	18.292633	6.3561277	1333.6157	-53.644176	-621.43536	628229.56
He	1.0	0.78822833	1.8312602	8.851014	644.38873	833.55646	7845.861	-62.480183
He	1.0	5.8737535	22.276995	19.134092	9680.339	-3751.0454	6243.795	8.7310483e8
He	1.0	8.653865	2.1682723	4.800373	-16634.773	27028.152	26911.812	2.5438945e9
He	1.0	15.229918	12.44037	1.7303667	1195.8484	-2724.541	5659.95	425774.22
He	1.0	15.335907	4.140644	3.5362763	4616.423	-3198.1628	-9.452442	55.198154
He	1.0	0.5227707	10.019867	22.810228	1358.4253	1613.189	-2849.8335	2.4999168e8
He	1.0	4.809806	16.566347	10.249257	-3791.2424	-24207.875	-7260.278	20923.031
He	1.0	8.482852	4.9411755	20.77195	-3975.6077	6710.7876	-2258.483	255.6277
He	1.0	18.985403	12.335715	17.565933	-451.94394	-4570.654	-3108.5586	28860.48
He	1.0	19.312935	15.198148	22.191854	-7371.4663	-5155.906	11704.164	5.479179e9
He	1.0	19.773605	16.411774	14.156834	2627.198	5314.8164	6543.0176	-20.28144
He	1.0	1.5400399	5.2614164	3.599953	-6965.3584	4989.951	-2984.3386	1.4682401e9
He	1.0	4.852135	5.099551	19.205755	-5115.109	-2243.0715	-2930.773	-59.1429
He	1.0	11.738699	4.994991	6.174199	-2617.9666	-3642.6763	159.62213	-10.459907
He	1.0	23.837193	14.214589	22.001476	4502.912	-3830.3445	6691.971	-655939.2
He	1.0	23.787586	1.4850317	12.009746	-4357.322	6383.063	-3640.8662	-800305.8
He	1.0	23.70969	0.29767862	9.54377	3173.9902	-1210.0479	8514.997	3.5971012e7
He	1.0	0.7710816	13.377287	9.2462225	-25323.469	22531.754	-18441.434	260632.9
He	1.0	6.992444	10.004432	12.051772	1904.6093	-7822.492	4965.7793	-189.27528
He	1.0	5.072424	16.620674	13.462939	1005.80023	-1209.5713	3491.3694	209.91084
He	1.0	9.849593	8.365483	19.758026	5525.1455	-9842.996	1121.9243	3.5594025e9
He	1.0	3.2954216	0.5575223	20.209124	-13349.555	25354.566	69.43031	1.6198264e9
He	1.0	0.66304916	10.11285	0.7210595	-10574.025	-735.9233	-3376.2158	4.354366e8
He	1.0	20.574238	22.352568	20.152447	-4916.59	1214.4963	-5986.681	5.388711e7
He	1.0	6.9753413	3.0596263	22.289425	-3032.6272	9755.527	-5867.054	112721.05
He	1.0	22.491947	19.842005	11.744328	4674.184	7669.557	7171.9434	404368.72
He	1.0	13.317296	18.82676	15.15135	-25921.064	-63374.14	64223.926	411448.94
He	1.0	20.741041	2.8271194	15.959576	-5197.948	-2024.2744	-1984.5883	419581.2
He	1.0	11.7048	0.019941872	18.508268	-3212.9456	3633.78	2447.143	630790.3
He	1.0	14.766106	19.133268	2.8788004	-2328.124	19565.88	2303.603	304743.38
He	1.0	17.794786	6.4456325	14.105565	821.23206	6660.812	3523.8267	1.0181261e9
He	1.0	9.293902	3.4895027	19.6627	3676.4868	-1512.3593	-1954.7979	29017.127
He	1.0	6.588102	23.233355	20.779243	-528.08997	1703.9808	-978.707	275.52094
He	1.0	10.931101	1.9957567	17.00977	-6709.3564	-5138.0083	5916.7217	208484.89
He	1.0	19.615967	20.16589	12.572569	2512.9402	-2047.165	2911.8499	-7.3438244
He	1.0	11.923771	21.1938	22.214066	-287.9599	2068.8384	4855.0	385537.94
He	1.0	22.907204	0.74210167	7.7668414	-2822.6711	-821.6262	4636.5093	151647.94
He	1.0	14.359074	14.06794	8.873855	-2007.3458	4527.5215	4412.1685	688441.7
He	1.0	11.65967	3.011035	15.454718	20468.602	3422.2734	15681.434	283861.6
He	1.0	9.999807	11.705456	22.842978	-15362.55	10755.674	19577.865	7.3742854e8
He	1.0	12.387453	12.043138	17.893034	-3880.8076	-3595.7932	507.15173	411.37558
He	1.0	23.649158	5.9919643	19.46791	-2339.3271	-1503.3424	97.10133	2902.9893
He	1.0	16.930988	21.918596	4.6382246	-3768.4683	-15.317179	374.36902	1.1411827e9
He	1.0	20.64549	6.9422183	2.3226347	2433.7214	2233.874	-4633.9517	5.1667056e8
He	1.0	12.803292	0.90842557	7.686289	1003.0572	4654.926	-4926.7935	-64.58223
He	1.0	14.781008	14.372411	2.250387	2667.7783	-2839.5469	353.0855	-22.744158
He	1.0	15.073155	15.383975	20.35951	2078.2756	-3287.6067	-48.57752	741140.44
He	1.0	10.1182995	21.740292	18.342194	-555.8316	-832.6254	8278.223	-563233.7
He	1.0	18.032137	17.310806	22.637054	-3076.901	-1851.907	-1695.0354	527686.56
He	1.0	14.322934	10.419178	18.312555	-1532.6252	687.0562	9000.327	-1.060562e6
He	1.0	21.291697	0.86459345	19.133177	1032.8605	-4025.0344	2934.2056	1.04963654e9
He	1.0	18.229183	7.692222	16.003754	730.3129	353.94058	-889.5795	471552.7
He	1.0	18.363281	14.807934	13.554755	6031.2485	-3666.3079	-2372.465	9.996661e9
He	1.0	11.823355	15.006255	11.591709	75.75555	-583.0073	-4430.7266	1.4865332e9
He	1.0	15.550599	18.748571	15.319566	4457.8906	5131.839	-1375.8761	7.774419e8
He	1.0	13.037442	8.115494	16.401962	-80497.02	-20735.332	15961.573	1.9149399e9
He	1.0	2.0244997	3.2055304	2.4297612	20272.0	-9245.952	10147.745	195.87573
He	1.0	8.7771845	9.043095	14.59723	2671.0293	-797.4834	-4650.572	5.533143e8
He	1.0	7.0529504	10.469299	22.785494	226.42094	-780.5687	647.0084	1.8845535e9
He	1.0	5.860908	17.726793	1.0399232	-5504.1455	-6946.496	-5802.2666	-517498.03
He	1.0	6.654299	0.30990216	15.108178	11820.847	8712.373	7988.801	8.791212e9
He	1.0	16.103785	0.75384474	22.178368	12204.758	22.931803	-22978.584	6.316664e8
He	1.0	12.49607	17.769876	7.5614386	-39211.18	14642.328	12565.14	7.553537e8
He	1.0	2.150968	11.88208	21.792673	2924.2676	1279.7151	4072.1953	4.6272116e7
He	1.0	0.05936684	11.060834	8.938397	5292.3613	-2439.726	450.89014	511870.56
He	1.0	0.10827252	12.034092	6.856614	-5358.253	-4666.396	-2705.9683	-668267.2
He	1.0	10.650315	20.001514	0.7447063	3856.413	2741.4333	233.18227	78948.83
He	1.0	6.272063	15.787469	0.18664022	7344.4927	1190.2954	6536.228	3.1172782e6
He	1.0	13.650814	5.9132643	16.214499	-6744.776	-1955.9222	3614.6343	54332.805
He	1.0	18.320627	4.3230734	4.9553704	10068.028	11019.526	-11870.807	8784.312
He	1.0	18.616388	4.546671	22.333551	929.71405	-4894.2236	-43054.188	265884.53
He	1.0	6.1163964	22.839514	10.413458	-5288.7188	-2167.8333	-15.7744875	-4.646102
He	1.0	3.9945192	1.4550716	12.003219	4432.0825	5171.406	-4452.738	1.5123182e6
He	1.0	17.999912	9.676381	21.182486	278.11386	3041.7197	-391.5989	281718.16
He	1.0	4.5497804	16.364092	20.574066	-2756.965	-604.6274	-822.68524	83813.55
He	1.0	2.2297895	22.684372	7.937205	-8612.045	11425.769	2278.2402	-468.60724
He	1.0	11.0089655	9.295927	13.663665	867.1148	-6672.4136	-591.4601	979240.8
He	1.0	3.74836	7.983097	23.582962	-1964.6084	1594.0587	51.809765	20828.812
He	1.0	19.888292	18.626383	19.544266	-1387.4094	3431.75	-5387.147	5.984922e8
He	1.0	2.6580424	21.773657	16.056292	876.9028	-28481.334	-7610.3633	119856.805
He	1.0	23.756298	10.229638	20.16618	4949.8037	-4563.63	-3051.1526	507308.84
He	1.0	6.7639785	18.271145	7.68598	1114.7942	1957.3341	-6211.074	1.5947174e8
He	1.0	20.431614	16.247028	9.513219	-6079.571	-242.90999	2635.9988	1.0262196e8
He	1.0	14.718083	19.62215	6.755394	-62797.535	16119.401	-48093.062	2.0124879e6
He	1.0	22.161835	4.8850703	17.519253	2118.9722	-174.21373	-1357.468	1.4350268e9
He	1.0	16.129803	18.267454	23.457726	1633.6982	-2898.2876	782.34454	725321.56
He	1.0	5.662731	20.19899	14.567755	-362.74768	-7267.1733	3902.8977	-121.07546
He	1.0	16.27816	8.090205	12.576764	-1692.415	-4079.6526	-5642.11	17612.758
He	1.0	19.538095	2.7646062	3.164355	30774.123	67878.26	-51553.86	2.5884961e9
He	1.0	0.5826518	19.859688	9.004411	3773.5962	11593.178	8040.1396	1.328146e9
He	1.0	6.491268	11.49284	16.794659	-4936.7905	-3019.3066	-3762.6357	164272.88
He	1.0	0.49267802	20.159594	1.5308768	-3547.7422	-2617.9019	4722.1797	24.823423
He	1.0	22.492424	13.282579	1.779037	-1045.5092	1406.3297	-6683.4985	23141.963
He	1.0	8.280297	11.404113	11.15143	-2437.7395	-833.0142	116.18068	156.40518
He	1.0	0.7453037	7.597813	23.33508	-4307.873	941.0106	7042.62	-29.364416
He	1.0	6.52923	19.640879	21.524364	1763.4456	-8737.236	-7727.049	13919.389
He	1.0	8.448012	5.0350165	5.36665	-313.96878	1848.7733	6585.787	116778.21
He	1.0	17.661045	1.9594967	9.392948	-1640.5577	7176.7104	1913.8389	-56.225273
He	1.0	13.545042	4.0388656	0.86893123	-1374.2101	7425.665	15487.331	1.5381022e6
He	1.0	14.850557	22.907068	14.174407	-3016.567	46141.11	-74188.34	184191.83
He	1.0	7.8909583	18.782187	9.253459	4792.4272	6617.929	-14179.38	1.621195e6
He	1.0	7.716866	7.546969	2.2422996	1549.1567	-3114.3713	-2423.6526	5.1622753e9
He	1.0	16.609833	9.62063	10.432949	-36579.31	-116182.59	-72585.34	911306.6
He	1.0	10.7144	23.127424	5.3334246	-10040.693	1832.5951	-3700.5466	1.5071483e8
He	1.0	23.301836	4.7584205	13.7045145	2549.321	1865.9001	2174.5532	187435.23
He	1.0	3.4741256	11.283142	5.9805746	4079.3203	555.31036	-1191.559	370776.8
He	1.0	21.503567	15.822944	4.929407	-27915.828	-14721.362	-10098.616	4.4874308e7
He	1.0	10.450814	15.8583555	1.7193321	-10253.617	-440.8456	3794.9639	73957.086
He	1.0	21.259113	16.680708	16.514753	-1018.0662	-2622.797	1064.3889	32.179893
He	1.0	17.673094	3.0422785	21.121155	-2400.1558	3555.5908	-9854.952	-84.95341
He	1.0	4.9551697	13.069231	5.000888	-21196.06	4166.415	73549.09	7.1241856e8
He	1.0	21.269627	22.700985	0.22647335	-8455.84	2007.8898	-2679.3516	-933535.44
He	1.0	21.851929	19.372883	0.75454736	2309.6338	-4556.0586	-3414.2822	9.310877e9
He	1.0	3.787457	22.744692	19.828274	11085.219	-18501.383	4917.124	979873.8
He	1.0	13.181243	6.324384	5.68587	-3883.2896	-1579.3127	1011.6826	3.126584e8
He	1.0	9.386217	14.932705	13.468609	5211.6987	-799.23035	-7169.267	-953543.06
He	1.0	4.8062673	1.0384812	8.991124	3067.1116	-6504.0312	-3570.7158	334191.2
He	1.0	8.501609	8.956368	5.8772955	-8260.712	-436.9461	-4346.969	-187.89447
He	1.0	18.197302	21.894365	22.26594	-17057.748	32045.96	24263.486	1.6665373e9
He	1.0	11.862893	20.541632	10.567854	-2182.1912	-4537.9443	1202.5126	1.4291306e6
He	1.0	7.0285606	18.560736	2.437648	-1350.4857	-3739.3425	2968.8882	-0.124537855
He	1.0	16.248518	12.686164	16.105307	15937.564	-25979.705	-19193.79	595996.06
He	1.0	22.576736	11.3323965	1.0739506	-11977.184	-5186.2383	-5054.9116	2.0194578e8
He	1.0	15.484257	2.664109	14.418971	-5106.324	4829.5957	-1528.939	578219.4
He	1.0	3.6061082	6.471465	14.165416	2787.0076	-7420.9653	-1686.9036	139792.14
He	1.0	14.2166395	14.118671	21.689594	-3086.5305	-420.05832	4524.511	4.9801725e6
He	1.0	17.40391	10.090075	1.1481692	4999.9883	-7622.7812	3948.311	-700994.94
He	1.0	4.504483	18.225248	19.118628	1926.1677	1668.2383	-7654.478	67.21674
He	1.0	19.298496	20.647448	4.3079934	-5857.845	-3258.691	-7184.4814	-666114.1
He	1.0	23.937353	12.876749	4.498296	4697.176	5496.27	-1870.3617	163.12642
He	1.0	7.200273	14.939376	7.030786	-6353.094	9496.683	87496.055	92995.86
He	1.0	4.1410017	22.621935	5.86858	-590.79675	-18854.225	-1469.01	88803.34
He	1.0	4.8508334	6.558325	12.518311	1358.2126	159.23079	-358.8918	3.2604474e8
He	1.0	14.929624	22.396467	8.082866	5219.061	-9501.473	-4377.493	10.418297
He	1.0	13.47049	1.772794	15.059978	-3510.6958	-3761.2349	-4766.643	70706.9
He	1.0	16.788301	1.2887809	0.79314727	3390.907	1536.9701	-1157.486	77.28712
He	1.0	18.354404	6.151169	17.291042	-5464.4375	6117.6323	-3051.2834	-698302.94
He	1.0	18.399729	16.37854	9.589662	2895.036	-2947.8667	3442.1895	903022.5
He	1.0	14.458745	18.78984	18.920261	-12391.758	10909.234	30112.633	642133.5
He	1.0	15.11681	9.449384	4.399093	5220.4956	1660.6172	-4583.494	643928.94
He	1.0	17.882519	4.814512	11.98155	-5077.1196	2605.5342	2513.4006	98.53487
He	1.0	9.94069	17.716543	16.602549	137.91142	-4339.908	2059.1975	6.232943e9
He	1.0	17.303938	20.864882	13.110827	-160.98009	-21127.547	-901.4552	2.9054295e9
He	1.0	11.775534	6.9839945	23.699827	1388.0425	-3111.85	5471.3364	-73.09142
He	1.0	0.67545897	7.312506	6.8400598	-1230.0565	-192.47897	-5560.267	1.0208382e8
He	1.0	4.1492305	6.8662753	16.841183	391.68076	-4597.8867	1472.5299	-170124.86
He	1.0	8.379367	20.978153	17.11459	2710.1133	585.13324	3518.7114	-10.504529
He	1.0	16.935888	0.9962318	19.978548	-9421.8	-3672.9958	2106.2373	-1.1722469e6
He	1.0	2.577647	3.9991522	5.1623454	-3128.9036	2636.5454	-551.52075	177374.86
He	1.0	4.5186157	12.296816	10.870123	7481.614	20404.316	-24158.26	3.1170055e6
He	1.0	10.606291	5.091316	3.6200786	18644.64	-51408.78	-104547.875	217877.86
He	1.0	7.979756	13.02655	15.063727	-777.0828	-3431.817	2987.3333	515531.62
He	1.0	6.166988	14.301197	18.646027	6981.6367	-110449.164	-30082.412	4.755779e9
He	1.0	10.093119	3.526988	4.7378187	28107.771	23414.092	-3598.8413	82584.266
He	1.0	6.872201	14.749646	1.8438913	-3769.9077	4241.4106	-4541.179	-551799.3
He	1.0	6.658086	17.4434	22.25945	219.99155	9079.615	-7738.5933	3972.868
He	1.0	21.336466	7.529529	23.191084	34451.355	8980.943	-7350.86	2.5463683e9
He	1.0	18.572344	18.591959	7.016178	-3332.8372	841.7098	4827.247	5.3792824e7
He	1.0	10.702869	20.128988	14.098521	-7161.1504	-1488.319	636.0711	133.14166
He	1.0	0.9574768	3.6721597	12.956236	2041.3802	-3989.1094	542.5876	116259.266
He	1.0	19.72413	1.7639791	14.451831	-1023.6052	706.36005	-442.41336	18.158789
He	1.0	17.641813	21.267849	17.343918	5831.9067	10128.675	-11827.448	3.1126904e9
He	1.0	23.134045	21.537928	2.3050592	-1723.8196	-1233.6211	5217.574	962539.75
He	1.0	12.902647	3.1251934	13.562055	-396.94955	907.6395	-4686.497	-231690.73
He	1.0	2.9919991	13.844757	17.78587	-1334.528	-4100.761	2276.213	0.03136205
He	1.0	0.39035124	17.82481	2.6963415	107207.625	57925.914	-11677.184	322064.22
He	1.0	18.309391	9.85934	15.933302	-103722.945	-50341.11	-84431.75	621231.7
He	1.0	5.5109105	14.406851	14.690187	-3418.049	251.05641	-3793.5078	363.2666
He	1.0	17.086245	0.93005115	15.581279	5952.7524	-4921.6045	7741.893	-1.4063879e6
He	1.0	18.885815	14.447976	6.060884	-9645.951	8269.512	-11134.688	471234.25
He	1.0	20.948679	13.113299	23.36023	-7103.8555	63301.574	-28183.959	1.7953363e8
He	1.0	18.207878	11.529357	23.35655	798.90955	7967.44	-5201.457	-36.93231
He	1.0	0.53753537	16.28643	22.89764	2563.3462	9505.486	-1149.4883	-102.84403
He	1.0	23.5021	18.525831	10.021646	-1923.3237	124.40676	-4034.0242	326.75082
He	1.0	12.854802	11.502743	21.530476	93538.88	18841.564	49532.71	464255.84
He	1.0	0.027910331	23.760588	12.826313	3124.5833	-9791.888	-2678.0554	-1.2306386e6
He	1.0	17.979237	19.195107	8.826405	-4205.027	7766.0967	-884.9423	919702.94
He	1.0	11.6517105	22.155148	16.982384	5821.5938	6685.3223	-4186.613	-215.56917
He	1.0	12.481898	6.4070435	11.219982	2742.2385	-473.29437	-1332.3646	88157.92
He	1.0	3.3678753	11.381488	16.483818	-2684.321	-3773.3894	-678.0411	-53.625626
He	1.0	15.414988	15.260511	10.25409	-964.47394	-3818.5347	8080.6963	-536224.9
He	1.0	1.0819713	1.6954848	23.083714	-33220.047	58372.676	-16724.771	1.1101858e6
He	1.0	16.73387	3.4046059	5.7366595	-12758.039	18909.47	31420.863	535292.6
H	1.0	16.149023	3.4491682	0.20439728	-427650.44	-383490.66	43365.375	-8.687166e9
H	1.0	6.7541375	12.933356	6.2895255	-66488.04	-24666.797	-673079.94	91373.56
H	1.0	15.966835	6.8314586	5.2975893	92226.09	68704.3	-93389.08	1.2688129e6
H	1.0	7.7899814	18.79068	13.240446	-614392.1	-283255.0	-127529.32	-891328.44
H	1.0	22.164284	3.6571908	5.6869125	58323.125	-993176.44	218625.83	-2.6321178e6
H	1.0	18.504402	23.847729	23.813082	480658.12	-265994.2	-312132.3	3.6276106e9
H	1.0	20.70829	5.403954	6.2176337	734158.75	91552.7	-294690.4	-6.0011525e9
H	1.0	19.728243	6.618744	9.25444	76462.85	-327036.38	155841.08	613656.5
H	1.0	20.019812	10.493459	2.33927	-509132.6	-186736.58	130569.53	-6.2794373e9
H	1.0	4.984826	10.076921	18.43684	301778.53	-1360.2614	-114854.14	1.6630312e9
H	1.0	2.584655	16.12212	22.836166	-256640.42	453373.34	365961.97	143047.73
H	1.0	4.960005	4.309326	8.578638	280845.97	86501.24	-366760.25	-4.6142826e8
H	1.0	3.4252803	2.7519908	23.745096	-170361.3	-362107.28	-568626.4	-88343.42
H	1.0	6.814833	11.029062	3.5806038	-89762.945	44276.527	122712.93	1.1748292e6
H	1.0	10.802089	2.11983	19.07776	-852452.8	417065.38	98468.6	-7.2675123e9
H	1.0	2.3638477	5.395219	15.793591	48408.117	-65921.18	-240776.73	-2.300832e9
H	1.0	2.9743857	13.676909	22.577131	209584.8	52995.402	1947.8932	5.2174725e9
H	1.0	2.2197032	11.295046	4.3267612	302943.62	310155.88	-555443.2	-503813.16
H	1.0	16.31705	6.5445704	20.512291	139484.56	-337725.22	-363211.75	-3.6660925e9
H	1.0	0.85341436	7.8960147	11.973236	278212.0	262259.78	-112008.5	1.574262e6
H	1.0	11.242509	20.44052	4.209747	559119.5	-150463.42	236466.86	-875493.06
H	1.0	12.132993	23.004274	6.936417	449.68985	-6537.5645	483165.12	-8.8861235e8
H	1.0	5.681858	1.0290992	18.778622	-93645.195	-346411.3	-502674.4	-4.0428564e9
H	1.0	18.330503	13.184267	4.259581	-176041.4	-141761.88	663879.2	-167682.0
H	1.0	4.1152844	20.651907	21.628134	2516.831	-44630.547	228602.75	1.4479096e10
H	1.0	19.837004	18.36482	3.381921	176145.28	-27331.56	-661750.1	-1.6028832e6
H	1.0	15.494152	7.522579	2.7926981	58218.93	412280.53	208417.77	-269949.56
H	1.0	20.733295	21.338717	14.747936	-154302.12	-85773.76	84802.07	9.504293e7
H	1.0	2.3007696	22.037706	14.000317	-1714.074	-98739.01	253587.52	309564.1
H	1.0	17.429394	6.6325808	1.5032645	75585.664	348225.75	107299.44	9.32606e8
H	1.0	11.141725	19.432909	6.962345	-204783.31	81207.71	-133110.27	-121515.45
H	1.0	24.028858	16.729399	13.49209	-162131.72	-12636.14	-119572.4	1.78389e9
H	1.0	2.008591	24.028307	23.12682	-59533.04	-277563.97	-288771.5	-526034.8
H	1.0	21.387169	3.6827307	14.247902	63155.24	-263381.22	-692840.44	-1.0851968e6
H	1.0	0.32711032	7.9405203	8.862134	595677.5	22996.15	8587.158	3.6773665e9
H	1.0	7.038219	5.4626126	7.386109	-188461.5	80150.625	-19086.336	1.3128116e9
H	1.0	7.761591	2.1448028	19.575346	-269048.22	-197038.45	-12287.329	-11940.938
H	1.0	20.2248	18.237286	23.664919	92879.55	-458235.53	24077.004	1.9643645e9
H	1.0	16.685398	19.500753	17.604633	209134.55	275904.03	-435272.66	-5.607806e9
H	1.0	20.74592	4.848971	2.7679703	141572.08	-61383.367	-240007.83	-2.4699732e9
H	1.0	10.346792	12.999587	14.422039	107778.445	302099.4	134332.14	4912.0815
H	1.0	0.7805506	13.225879	17.636396	-188526.28	-400126.16	221429.84	70786.07
H	1.0	12.854969	16.472717	20.876081	-9425.993	-246638.55	-31341.459	2.6187243e8
H	1.0	14.338237	17.29537	6.985102	-90258.5	-176825.22	175831.56	-107126.38
H	1.0	24.03186	0.31176928	3.402557	-322174.44	-92052.64	-236557.2	9.146162e9
H	1.0	15.598498	3.6524577	18.325994	119664.19	-89561.66	-150565.08	393178.97
H	1.0	21.149193	6.595692	21.405153	-220678.02	47195.613	309587.88	-545121.56
H	1.0	21.0408	20.901302	1.7525659	52775.176	7913.2466	346108.25	-3.3820733e9
H	1.0	15.333109	16.80642	15.85437	-106120.34	-249959.25	-109267.32	8.4370835e8
H	1.0	8.212569	23.711288	1.7558104	143755.7	-233483.6	149695.58	-129180.195
H	1.0	4.160182	11.289679	12.559005	-388115.44	-650612.0	255513.6	-4.6123845e6
H	1.0	0.6025782	18.019133	8.213997	123766.63	15155.953	-178952.62	725666.44
H	1.0	19.731894	16.398525	18.786678	586702.0	87423.72	-278456.8	-1.0591189e6
H	1.0	8.093923	6.6920204	16.927877	-183083.72	191965.88	608211.06	-1.7295025e9
H	1.0	19.15395	18.069414	12.800198	167291.89	67444.96	-223383.08	-3844.6897
H	1.0	23.97902	23.743694	22.604708	165404.03	275048.03	-151727.67	2.4867282e6
H	1.0	4.2482467	17.61957	2.8416958	-679792.6	619559.0	138613.5	-1.4436452e6
H	1.0	2.9860294	16.36548	12.361636	362738.2	-296948.12	-315782.7	516002.5
H	1.0	14.17591	1.1882442	17.323812	-34444.906	213863.84	-132501.67	2.8338002e9
H	1.0	17.325653	17.552885	17.037775	-179544.4	-140891.7	-207207.98	-710297.2
H	1.0	4.8209324	8.893402	16.00075	-273006.22	-181794.53	-214018.48	1.04148706e6
H	1.0	20.870113	16.474787	1.1502376	-380307.4	-89731.375	237063.2	-1.085083e9
H	1.0	19.725283	12.7423115	10.472639	58317.668	-28538.543	-870450.94	390113.53
H	1.0	23.920553	20.720575	22.246698	-172157.11	197926.3	259705.62	67758.11
H	1.0	4.1730976	15.314299	5.750721	-351533.03	365311.44	-380566.84	1.01774825e6
H	1.0	19.022335	14.389789	9.483182	-81031.21	-29427.95	-459979.88	-4.154088e9
H	1.0	22.705212	21.75483	12.420913	-474197.34	5230.7437	-185484.92	-3.0254374e9
H	1.0	18.170805	13.158563	15.074737	191703.83	-58063.79	50594.367	339347.7
H	1.0	4.063034	21.171679	3.4319804	43687.348	34535.234	-515503.16	208687.27
H	1.0	2.0423844	9.952945	12.170893	-64519.133	721869.56	-173191.5	-1.1624271e6
H	1.0	17.69094	3.3332617	18.439323	-210452.03	-36720.664	-136494.77	124634.93
H	1.0	9.107761	21.13419	20.547733	201806.69	47844.11	119647.17	5.278706e7
H	1.0	18.983046	1.8834503	16.650051	163958.48	150536.2	53163.656	-438495.1
H	1.0	15.613664	11.018552	0.24745263	74903.26	-204435.19	174816.45	1.3664486e6
H	1.0	11.203356	7.155245	12.614009	-363423.06	253910.42	-193131.97	322823.94
H	1.0	18.300722	15.298905	1.3610138	171041.08	-255992.34	387251.78	-26015.686
H	1.0	4.9615207	21.732525	17.4358	29124.268	-64997.527	-483499.8	-2.4566956e9
H	1.0	19.81076	11.084222	5.2342906	104234.71	-68365.19	5582.6914	-9.418774e8
H	1.0	21.944483	6.206134	9.090886	53143.8	-208151.47	-207683.0	-138078.62
H	1.0	9.001479	0.41452587	5.9304786	313313.3	150958.88	395788.75	-1.4398386e9
H	1.0	14.313165	7.2893972	0.8413715	170129.23	-234221.27	35328.56	497262.38
H	1.0	13.36245	14.505825	16.635153	180816.64	192238.78	27978.867	144457.2
H	1.0	0.6871837	17.775492	17.503553	111221.914	-195672.75	395478.3	819849.7
H	1.0	20.341797	19.771912	17.714973	170720.97	137272.08	-236588.97	-2.353217e9
H	1.0	15.952925	8.261064	8.98869	271840.97	-216397.64	-562796.25	-1.3305629e6
H	1.0	8.402152	22.126902	4.9252734	359459.1	-164072.88	191059.44	-5.992841e9
H	1.0	7.578758	18.975119	16.57335	-77505.8	-50825.82	355724.78	-38931.824
H	1.0	4.673038	14.139842	12.025384	318174.0	215488.48	-142800.16	69447.5
H	1.0	21.898209	23.471582	14.055739	-256965.39	434304.34	-167380.75	-999838.0
H	1.0	5.6516566	4.431165	11.857199	-386136.0	-36815.305	-718089.25	2.3043804e9
H	1.0	21.070171	11.679584	13.965424	-255172.19	-131644.53	-47720.535	5.884713e9
H	1.0	10.749321	0.3489356	20.483578	-279591.84	134912.94	25320.105	3.7676603e9
H	1.0	15.348709	1.2241441	12.980707	338330.38	242693.86	-317677.44	630286.2
H	1.0	8.961904	4.3494534	22.933386	-81976.37	88306.01	140965.31	3.073579e9
H	1.0	16.298313	3.980089	10.461611	-180321.5	730152.25	-107273.34	-5.756754e9
H	1.0	12.551414	1.624667	3.3353193	-236570.84	-193416.36	-394136.84	210593.1
H	1.0	6.712583	14.978081	21.037731	137014.81	-362450.22	203458.22	-65695.8
H	1.0	11.408985	14.363975	19.21837	10595.081	-155670.1	-161456.39	7.1947387e9
H	1.0	6.358154	5.9642434	17.417011	364191.0	57890.336	5703.3716	128477.195
H	1.0	8.235753	12.597803	17.188688	259345.94	-103015.26	-309547.9	-1.49421e9
H	1.0	23.396101	12.116617	18.739405	86144.68	197459.69	-350999.28	414786.3
H	1.0	16.775383	14.607552	19.135899	-270816.06	196926.08	-340248.06	-4.2637344e8
H	1.0	16.440796	1.721944	4.688451	-242397.5	-358942.44	243966.98	-1.8603075e6
H	1.0	13.678001	19.302309	17.173344	-16678.48	-93381.086	139745.78	-229605.22
H	1.0	13.156023	18.655844	12.732401	-122078.195	-265536.78	-359400.12	-1.658661e6
H	1.0	16.204641	19.14971	12.939339	137931.42	-232464.16	291992.8	-2.7702917e9
H	1.0	1.8253448	8.036824	2.178871	-15642.179	179995.7	544010.5	-1.8468051e9
H	1.0	10.778398	10.836648	0.40877703	-48384.6	-110832.445	279332.25	3.896499e8
H	1.0	3.4011126	20.811787	19.35565	-296111.78	-181446.36	258699.17	-1.2856185e6
H	1.0	17.277985	8.821487	14.159163	-309465.9	353798.34	256335.7	-3.592167e9
H	1.0	24.028873	16.307589	20.844063	-182152.47	-115930.45	-294224.5	-94353.97
H	1.0	1.8491086	12.203863	10.447696	361570.0	118305.53	-190876.05	-2.5773932e9
H	1.0	18.018003	6.4827642	7.266145	251453.05	14614.664	-169998.08	3.8708506e9
H	1.0	21.593773	20.235554	19.6524	103885.76	29716.344	31996.955	46622.88
H	1.0	7.1779866	16.425129	4.286098	2155.1404	585294.25	-86677.22	396090.12
H	1.0	19.398197	16.75874	20.951668	129217.5	-362133.28	193959.33	-872794.94
H	1.0	1.5454433	14.319756	3.3502553	-80969.766	-187547.83	149918.5	3.443354e7
H	1.0	16.882181	8.502981	7.1119914	399268.25	-110081.39	-134427.36	-4.6348108e7
H	1.0	0.17122243	12.149018	1.880833	37329.13	488060.3	537118.9	-5.325633e9
H	1.0	1.2784194	11.031065	18.408577	132872.36	-138754.48	452807.53	-51408.953
H	1.0	20.576511	1.5295113	8.206504	569985.2	-310743.72	-197106.12	-844254.94
H	1.0	21.479383	2.958894	18.205984	9935.498	-511396.4	-169448.25	3.1068093e8
H	1.0	12.956273	13.48499	10.315844	25409.93	-184750.38	349572.38	-1.2269904e6
H	1.0	5.8984866	10.084314	21.16251	73390.47	-304212.5	-132060.12	4.742724e9
H	1.0	14.1100645	4.501468	21.518053	151506.2	375367.16	176210.89	5.0713836e9
H	1.0	8.453466	16.171764	1.5423309	-127994.84	247152.98	456394.47	-102249.58
H	1.0	11.867465	22.593033	20.417862	68000.36	130091.86	234029.23	-6.1188823e9
H	1.0	15.164451	14.017879	4.365133	-510361.94	-178176.03	91899.266	-860563.56
H	1.0	5.2407184	15.331647	22.600878	283639.16	351127.56	229.17252	1.1023732e9
H	1.0	12.011411	8.798571	4.7004905	-712350.44	-170080.19	248357.4	-5.3763706e8
H	1.0	22.079178	5.4129725	15.531738	543269.25	-380322.06	-283440.7	-577064.3
H	1.0	1.0441066	6.1114492	13.973718	257083.1	328403.66	-159682.75	-2.415158e9
H	1.0	7.2246294	18.508114	5.293371	36911.03	-13350.901	-312020.4	-8.55225e8
H	1.0	11.359145	4.51533	20.713573	-102708.29	-146534.45	-120523.984	7.010517e8
H	1.0	21.217113	16.752268	11.382323	393476.88	-394411.0	-112466.664	-690883.25
H	1.0	6.4124923	11.280229	0.7549533	188369.84	-737908.25	-13795.871	-5.8654295e9
H	1.0	14.912986	23.567215	5.945202	11983.265	323674.16	-333193.3	-6.433034e8
H	1.0	6.7034	10.905775	9.949683	229206.53	-8979.141	189563.98	-46006.85
H	1.0	19.527143	22.852636	13.863885	279385.8	-423805.88	303443.25	9.553377e8
H	1.0	14.29022	6.0937204	19.971558	222911.2	-479721.5	-566472.3	-5.960706e9
H	1.0	6.070846	22.395573	23.672821	10030.237	-410534.56	-171443.22	-46359.855
H	1.0	8.203038	23.443035	14.215223	-129863.3	-22144.562	534490.5	584244.1
H	1.0	3.4337091	11.871873	20.222383	-139229.2	605775.75	31527.959	-849366.44
H	1.0	13.487651	9.454208	6.971206	-25688.162	45352.445	617223.44	-1.9140468e9
H	1.0	14.685333	9.130555	19.848404	91725.875	-7.5687795	110187.55	169101.47
H	1.0	23.794933	15.375994	4.6229577	-158030.34	343994.34	121545.46	872108.3
H	1.0	0.43444058	5.1430516	17.868092	-239599.69	350359.66	-206646.06	-143532.84
H	1.0	12.284235	13.263853	22.373377	241698.11	-77217.12	539282.56	-876894.75
H	1.0	23.089989	21.244862	5.791883	80486.64	171304.84	4944.4326	1.0965672e9
H	1.0	1.184584	2.231824	4.4908953	-226621.69	344944.47	-649599.1	-2.7125486e9
H	1.0	23.630175	6.98463	16.740398	-36319.883	206133.89	-196193.62	-198277.36
H	1.0	4.630997	9.734762	6.690806	-18225.37	-449083.97	-158017.38	-628725.94
H	1.0	14.380422	20.658777	20.169416	-134828.67	-80827.09	-256195.6	-137292.64
H	1.0	16.185457	10.835197	20.565619	214212.1	111913.09	242442.58	68374.33
H	1.0	3.724454	14.150937	20.468153	611896.9	-99596.66	49874.52	-4.3197184e9
H	1.0	21.844824	20.917974	4.051238	-337246.56	199650.1	-294816.66	5.2357923e8
H	1.0	2.2615035	4.200433	11.349888	284525.28	-152524.5	35025.46	-318249.16
H	1.0	22.449055	14.841394	3.3241625	363519.84	-173543.4	368954.16	1.2595708e10
H	1.0	13.370599	11.758967	9.013262	275055.2	31247.201	308470.3	-194653.06
H	1.0	7.989063	0.45639738	4.058049	-425514.0	-150823.73	183374.08	45234.152
H	1.0	21.210474	22.354214	10.34133	223873.38	646195.6	-11129.621	-9.033258e9
H	1.0	19.71099	10.483384	17.109213	-411824.88	-256512.72	118245.25	-793856.1
H	1.0	22.756027	15.485012	9.695862	-455505.12	-285988.25	274362.78	-393377.7
H	1.0	4.5295234	3.5770724	13.183691	-88674.45	307509.9	133089.89	7.6335475e8
H	1.0	12.663384	23.972164	14.011968	261058.86	7049.014	76995.625	69682.664
H	1.0	12.345001	15.936684	0.44674584	-111962.336	-226730.19	37579.36	-10546.595
H	1.0	9.494369	18.091442	2.2968602	-197736.78	-655214.5	-310855.4	-1.5251318e10
H	1.0	0.81455946	14.81564	7.600988	-968.54254	75713.32	-160494.03	-1.8793609e9
H	1.0	13.049818	23.589088	1.4567169	-206691.36	-121868.42	378889.28	-655552.8
H	1.0	12.599215	11.741219	0.7760471	-246756.78	164760.62	-236522.61	1.1299516e6
H	1.0	17.018124	10.394941	4.855764	510597.28	124873.01	-41230.973	-1.6592166e9
H	1.0	1.2684703	23.067123	1.7034277	113302.91	66674.86	20142.9	762241.56
H	1.0	14.111063	4.774694	11.249456	-220382.11	-277042.84	-553173.75	-712079.44
H	1.0	17.774323	4.910127	2.6772811	-221442.42	120018.35	-196443.5	-14647.757
H	1.0	16.44566	2.2561913	2.8080528	71883.13	-27885.734	11808.413	2.519602e6
H	1.0	16.922594	11.803486	3.1465592	95747.07	-326938.78	-46102.926	-7.479808e8
H	1.0	23.231506	11.854402	21.956522	-15882.9795	-118821.5	-396153.1	7.087212e9
H	1.0	18.318932	23.480738	3.3427863	-103829.09	76422.46	-334792.56	-479271.0
H	1.0	7.333971	14.506625	10.906104	-119847.74	-182312.44	261889.9	-7.21387e8
H	1.0	19.749697	4.009942	19.918898	368424.3	709292.56	-76889.32	1.3122006e6
H	1.0	16.084757	18.761324	7.8374977	-73766.32	251764.77	-182994.19	-1.7984016e6
H	1.0	14.427605	19.529531	0.8866839	185657.78	58470.94	-243667.22	-8.5156024e7
H	1.0	16.67833	23.070871	21.45517	765190.0	366757.75	-184935.2	-801275.7
H	1.0	7.8335485	8.418871	22.967901	-102705.39	-233264.48	382134.84	3.7248224e8
H	1.0	22.71666	9.106267	8.427248	-246657.12	-33581.582	722712.5	-7.4370565e9
H	1.0	0.05886631	3.8323896	4.2010694	-391071.88	-187267.47	381543.97	-389229.44
H	1.0	20.76383	14.016256	21.085278	66083.56	-35151.773	-191471.73	1.6380742e9
H	1.0	13.797091	2.3560104	4.7811103	197281.67	226895.64	191768.02	-9.1519846e8
H	1.0	17.789524	19.866177	11.103192	-381093.34	-110324.984	585149.06	-1.093493e6
H	1.0	15.603229	20.37577	23.171223	-72611.15	-97958.93	331135.97	9.047924e8
H	1.0	5.033209	12.402122	14.79927	-242479.58	281239.84	330977.88	3.385829e9
H	1.0	10.758626	3.06276	13.68909	-349852.12	454648.94	129769.43	-471217.9
H	1.0	8.685457	11.086608	14.629975	-169955.42	265977.22	-120644.555	37416.98
H	1.0	13.455234	10.75724	12.201931	313391.44	547784.5	-400051.9	-1.359529e6
H	1.0	9.29834	13.727426	10.463603	521968.78	123628.3	188628.05	-2.1712876e9
H	1.0	1.6078157	17.697905	0.70007145	22607.748	-439833.8	-225150.95	293081.0
H	1.0	20.045946	22.977217	22.13926	489664.72	-291428.5	271424.66	-608337.1
H	1.0	5.26599	12.465718	19.151354	221108.53	-154071.56	-951850.75	-1.7791955e6
H	1.0	20.518366	9.739225	13.436558	-260346.14	168049.17	68708.445	2.5927575e9
H	1.0	12.925129	9.554186	22.987648	-458168.5	-565621.0	-210745.92	-2.0993222e9
H	1.0	0.5253618	3.2865484	21.762026	-14137.403	405790.34	-115837.71	-960127.06
H	1.0	0.051504567	2.402271	2.5866036	352687.75	7352.3135	135158.53	-2.467804e9
H	1.0	15.316339	13.993946	17.265167	-220601.05	-426960.72	111661.17	4.0148974e9
H	1.0	21.745283	1.6325072	12.678042	85762.98	-472318.9	277672.03	497258.97
H	1.0	17.576033	14.458733	7.669447	320873.53	141109.52	340655.38	-2.2525468e9
H	1.0	10.626643	11.158002	16.132095	-215694.89	139849.86	157628.17	-47213.914
H	1.0	16.013405	20.709686	3.060441	-652985.5	-353448.22	208146.75	-9.214338e9
H	1.0	11.147452	23.991945	8.991006	-256817.38	699831.3	-295429.84	-6.44697e9
H	1.0	3.0976067	6.5838275	8.524014	-112860.19	375264.2	1055.5006	-192093.61
H	1.0	12.818104	13.79286	0.94866335	-430917.3	907290.9	27893.66	-1.7614158e6
H	1.0	0.6039989	5.18861	6.5092454	-8754.372	124137.07	325296.47	-483777.75
H	1.0	0.62113667	7.9452195	19.414528	-443601.03	339332.28	-44497.965	-1.7068384e6
H	1.0	8.121121	22.00298	8.63711	481272.72	-535238.56	-499457.8	-1.2315555e6
H	1.0	11.948908	8.636953	21.31626	166995.52	24672.926	-562886.6	-1.614131e6
H	1.0	23.007963	9.658148	10.523575	-228375.77	-413040.5	189894.5	-335138.34
H	1.0	5.966445	2.4363863	12.395512	-113883.016	115442.99	-473055.97	3.0614625e9
H	1.0	17.681246	2.6011937	23.19183	380635.8	-30219.148	-400684.3	-17973.008
H	1.0	9.771649	22.566738	7.094001	-311875.06	408919.84	263392.94	474095.3
H	1.0	2.7126484	12.736012	2.0665193	-157798.78	-68278.55	-169501.45	-864161.06
H	1.0	0.50666535	4.009911	1.4697571	386522.7	-135101.95	639690.06	-1.4239951e6
H	1.0	21.228857	0.04344806	11.344959	-63939.527	-584.4505	127070.6	4.7890504e9
H	1.0	13.65742	3.2199857	23.13173	297979.5	-206568.62	69482.96	-2.1518426e9
H	1.0	23.115366	2.8317952	7.3745475	-601244.6	239875.84	-12129.265	-1.1274192e6
H	1.0	22.802319	15.389098	6.639213	382415.1	-122278.66	-222076.52	1.2868424e9
H	1.0	2.1134734	4.0356236	0.4554151	94160.75	274805.0	108225.234	2.091231e9
H	1.0	19.327765	15.738381	4.540627	44010.027	446679.25	154551.5	-5.073123e9
H	1.0	22.348616	0.46579483	23.89778	-86788.42	-156975.95	114948.336	-951870.7
H	1.0	22.904314	12.785941	10.333605	378689.88	158873.08	-358306.3	358500.28
H	1.0	5.270352	18.495394	9.991266	-4413.7393	538358.06	-286661.7	652437.75
H	1.0	18.166782	19.98039	23.761097	-88420.5	133540.0	-302576.4	-5.9392594e9
H	1.0	8.669599	19.51787	18.65735	102875.34	332306.56	-153619.1	31849.35
H	1.0	18.326645	15.690604	11.618087	-227949.33	-145204.86	-291941.03	-413418.25
H	1.0	21.104277	23.408651	8.006999	149192.48	-48067.695	-544110.6	-134637.77
H	1.0	0.9635843	17.923233	11.745014	190036.4	549281.6	92674.79	-618680.5
H	1.0	15.7189455	2.7342424	8.663531	790092.9	-447450.28	237264.0	-7.7918305e9
H	1.0	18.397295	2.6960528	1.4329174	519850.4	402674.4	170016.58	1.5702332e9
H	1.0	4.5997524	10.58636	4.432579	253709.36	-191904.06	149380.42	-7.493823e7
H	1.0	8.294902	6.625465	13.947609	-498692.9	50711.414	181406.53	-540429.75
H	1.0	0.2934392	19.98769	16.73231	11744.918	101960.96	-91201.06	1.4029718e9
H	1.0	1.7902728	1.8704647	16.652412	115319.64	-66360.51	358040.8	-1.5308061e9
H	1.0	18.395107	0.18219875	21.739962	17820.809	92091.055	295762.5	-1.7577107e9
H	1.0	14.355991	11.692049	16.561172	135494.2	101251.125	-167437.25	284614.94
H	1.0	18.635654	1.5980927	18.665123	46872.27	430042.72	63295.29	1.7325893e9
H	1.0	12.595577	18.2091	19.459425	-458955.88	-140203.39	14844.107	-640688.75
H	1.0	19.594349	9.998004	19.54075	125194.04	-31717.895	38863.508	2.0094689e9
H	1.0	22.901283	6.4600344	0.2054981	-202257.92	-831973.7	-160879.52	-9.318084e9
H	1.0	16.615892	20.638649	15.17112	227112.83	190308.69	486696.62	-560862.44
H	1.0	9.724435	17.77133	12.789262	160155.47	-192443.88	40959.387	274394.75
H	1.0	1.110244	0.6599325	20.861164	59517.434	155084.97	82103.53	560427.9
H	1.0	10.556962	1.2693046	10.77215	395136.66	81383.14	247560.55	-377456.5
H	1.0	19.874125	1.5755827	21.321402	-157530.62	-169100.36	91476.55	3.9999396e9
H	1.0	15.556707	10.82572	6.3385997	192734.89	87371.85	66183.64	261992.17
H	1.0	12.304705	20.304356	20.408123	84549.84	64921.03	374883.06	2.382613e8
H	1.0	4.462626	9.739823	11.428056	-89906.195	301030.3	-102389.96	-3.1062938e8
H	1.0	9.636797	18.318893	8.255216	380779.9	294835.22	156765.02	-6.0116326e9
H	1.0	12.359713	3.436546	7.6544294	-34501.5	290086.0	-70498.5	-197133.4
H	1.0	13.63656	10.906918	2.74715	83877.664	-186645.16	-182273.19	128858.164
H	1.0	6.2303295	21.246092	7.7287145	-3099.8013	572150.9	-59613.65	-497701.16
H	1.0	10.73082	8.582548	6.643316	-13851.315	-167992.38	353897.2	1.6020541e9
H	1.0	7.807448	17.599644	23.917562	-398685.44	413788.06	-238183.83	-747257.75
H	1.0	15.461921	23.518438	19.197742	38713.066	74872.95	404162.44	-1.549489e9
H	1.0	7.525561	15.0643015	14.757624	-206157.06	-174617.75	722475.6	-6.676934e9
H	1.0	18.367002	13.435748	21.99682	388417.44	-15088.217	473797.44	-5.4993787e9
H	1.0	7.3732233	6.065911	0.41959587	623322.9	-270181.78	38357.902	-831799.75
H	1.0	5.1813755	11.994098	8.934218	15677.201	-255050.55	377509.84	-5.5757075e8
H	1.0	2.6395698	5.932839	22.689604	-297033.3	-240893.42	-80121.664	264603.97
H	1.0	7.303359	1.8782182	13.795383	-208905.38	343241.1	1600.8748	-276310.28
H	1.0	19.47281	22.507677	16.907663	-213245.3	-160548.44	323928.94	4.0219704e9
H	1.0	21.512148	12.952075	19.152834	-125803.87	424663.97	-263744.84	383752.56
H	1.0	12.122171	3.7036617	3.4686809	162207.31	-282139.47	-96376.01	4.631302e9
H	1.0	2.6302385	6.2834067	5.00904	-75397.055	-272673.0	85901.99	-1.9409475e9
H	1.0	8.06578	3.4890401	16.812305	-300604.38	164164.72	-38156.363	1.1242154e9
H	1.0	5.3480344	1.8025522	15.49366	-238399.47	-590688.7	-332948.12	-246726.78
H	1.0	19.608566	6.011867	3.8024275	385460.7	-821734.44	-280412.8	-1.6182061e9
H	1.0	13.926268	8.795366	11.342203	-698427.0	412605.97	-157571.98	-1.7204726e6
H	1.0	16.89697	3.8483548	16.591505	587098.3	-485195.56	325298.1	-251206.02
H	1.0	13.546382	15.885864	18.971575	161991.23	-368545.38	-647964.75	-847024.2
H	1.0	15.99736	16.278316	7.919016	-308847.2	-539686.94	433139.12	-900255.6
H	1.0	10.554532	10.2856	18.978697	-226500.48	-33129.43	-352580.47	94634.74
H	1.0	5.2098737	20.059216	2.039257	179926.2	332726.3	-474049.7	-445314.75
H	1.0	8.673162	16.978052	18.011154	-184825.84	7855.57	112922.54	833771.3
H	1.0	5.8962746	0.46178976	3.797126	261100.31	-233598.45	509343.72	-5.4459745e9
H	1.0	13.348697	1.6934501	21.216145	-78539.33	-67177.77	-171696.55	382983.16
H	1.0	4.000572	19.41805	16.216986	-105723.96	111281.36	164518.73	-1.6861282e8
H	1.0	20.566784	5.7250195	11.980696	120511.02	-345463.6	-213789.08	-3.1848276e9
H	1.0	0.8386225	5.8120046	8.38208	27154.24	107007.63	318157.4	1.4527836e9
H	1.0	6.3221483	8.706763	3.1420164	-7884.7197	-96565.57	57961.387	-6.576848e9
H	1.0	19.229448	7.807616	18.106703	-241041.75	133907.3	283569.28	43359.574
H	1.0	0.4199869	0.4347478	5.3954635	343373.66	87888.06	502331.34	-3.0500319e9
H	1.0	2.9925818	13.217951	7.1017966	-354662.4	-380049.12	-279291.16	-10800.006
H	1.0	20.023216	12.278077	0.86062276	271864.62	-376256.2	295668.53	-155301.97
H	1.0	5.777057	20.50679	9.902823	285732.03	-34312.215	-149924.6	-4.873104e9
H	1.0	11.70589	16.333494	19.080223	584834.06	-169307.03	-136252.5	-1.3225246e6
H	1.0	12.442745	14.648976	8.590912	-60864.11	302520.0	586982.94	-2.2927585e6
H	1.0	22.548136	19.517756	2.8777936	-522864.4	11617.876	674601.6	-8.836646e9
H	1.0	16.129011	5.2428803	7.955089	-249012.58	130010.61	166341.17	2.2397056e9
H	1.0	16.180815	23.881214	11.711237	812075.25	-255451.02	-285475.56	-1.1496519e10
H	1.0	23.070318	3.6412492	15.784228	-303117.9	-29133.938	-253811.69	-7.972989e8
H	1.0	9.809585	0.9269339	7.957502	-450908.28	119597.07	115691.57	2.8865062e9
H	1.0	7.9354463	11.795738	2.1068358	273634.38	-102282.92	132890.02	-4.941474e9
H	1.0	10.889191	1.016657	0.619589	35928.348	159004.81	255741.4	94900.73
H	1.0	14.267916	23.578014	3.1453834	35940.49	-173724.67	492767.44	624613.25
H	1.0	1.4432656	14.360877	23.679728	-96891.7	68984.086	658865.9	-5.9236844e7
H	1.0	10.962769	11.352625	21.15551	493598.66	-29463.69	489925.2	-1.0952712e6
H	1.0	10.531066	14.381043	0.09951664	58672.848	-635179.9	429964.28	-1.276742e6
H	1.0	18.195036	21.27503	6.3799148	-46450.125	-446733.38	263643.62	281397.56
H	1.0	22.073236	17.30816	20.309933	-373679.5	202441.48	-22186.701	250864.6
H	1.0	11.241623	3.913635	1.629012	-35525.48	11362.288	-489685.38	-1.4580756e6
H	1.0	22.678768	13.867755	12.538529	402731.28	-350220.47	629387.56	-7.283067e9
H	1.0	6.781128	16.872086	11.266115	-329041.84	-257346.03	156151.05	1.2481221e6
H	1.0	5.077042	20.462633	5.8322515	95938.76	21599.242	236549.94	531243.7
H	1.0	17.44298	11.280428	14.827082	192559.17	-339383.62	272321.9	-4.8023834e8
H	1.0	12.914398	17.130404	17.541912	301815.0	-328993.38	-193513.34	-172981.47
H	1.0	11.383394	16.312515	10.027813	-248209.17	246496.44	317625.9	-489218.4
H	1.0	22.049915	1.4499012	10.166157	-198963.25	543820.06	-121845.414	-1.2578134e9
H	1.0	12.030206	15.789147	13.547134	-41485.29	-68919.8	231757.27	4.2278313e9
H	1.0	12.736607	7.200519	18.875608	-495889.34	-163801.88	-347836.7	4.3559987e8
H	1.0	7.2636604	1.8770877	6.903359	92469.84	82682.61	36293.426	25332.748
H	1.0	16.000942	20.911171	10.573493	233890.6	198339.23	87016.25	-1.06858963e9
H	1.0	4.3418555	16.762669	23.719355	81491.75	-124788.36	-75268.484	5.556842e8
H	1.0	20.746288	7.5676165	4.7160387	-516735.5	-223457.36	-236329.25	-239773.39
H	1.0	19.276405	1.8796035	11.494262	-3972.5632	-208067.11	-220034.12	343944.7
H	1.0	4.331089	4.5093045	6.70798	-27366.309	437436.03	318610.84	-1.0113672e10
H	1.0	15.466303	17.026146	13.510242	-471581.06	-181394.5	99650.73	537620.25
H	1.0	9.236483	2.5051773	23.743063	22427.336	-13819.179	-70812.016	4.67886e9
H	1.0	19.502588	20.874086	19.253767	-290984.44	-518782.6	-23015.975	249989.48
H	1.0	14.649483	10.665811	22.022436	-66552.336	339742.12	89787.03	97930.664
H	1.0	17.122904	11.244223	11.377384	-155814.52	-157146.42	263935.16	-5.112682e9
H	1.0	0.34727412	5.315758	11.143269	-25808.266	310363.28	-378904.22	417733.97
H	1.0	11.796945	5.391373	18.405252	260326.67	-349735.7	-166023.97	-432295.22
H	1.0	13.536569	21.738575	23.548815	-112126.62	-43616.133	164870.7	-2.4818685e9
H	1.0	0.6058227	8.133527	15.445368	50934.18	-302582.62	-262981.22	-4.9323756e9
H	1.0	23.98589	19.470692	5.1966796	-225870.33	-299244.28	278103.94	-2.7612262e9
H	1.0	7.2365193	13.65687	12.881299	-688387.9	141994.84	-68575.1	-4.2890685e9
H	1.0	6.0494084	16.202732	19.065079	-119715.305	-240302.34	-138348.4	-7.08724e9
H	1.0	23.913668	9.752515	5.497948	78080.516	316525.06	-181908.45	-1.2991293e9
H	1.0	16.34297	17.548134	3.543979	192900.2	391710.7	163286.44	2.5165792e8
H	1.0	17.22081	17.415375	11.065156	581087.56	474287.28	-399145.44	-8.825814e9
H	1.0	22.151012	0.41243216	4.142057	58286.582	-43762.215	-219590.73	3.7380375e9
H	1.0	9.366118	14.514261	18.673222	-413243.66	-504074.22	1918.0684	-410118.78
H	1.0	8.634231	4.195115	0.7995798	209149.34	83186.56	269945.72	-8.608364e8
H	1.0	3.553224	23.109886	0.02227427	254393.3	-87282.484	-242662.66	287494.88
H	1.0	14.741587	22.132973	15.985804	-282009.94	317874.62	198611.05	-2.2878508e9
H	1.0	10.0144615	10.58712	8.356286	321283.8	105143.86	-190050.75	575440.75
H	1.0	9.867074	8.8315525	17.335735	-379117.88	55394.81	-265454.34	-1.02732844e6
H	1.0	23.803064	21.479103	19.421343	-830366.56	192682.98	-68964.41	-7.8501304e9
H	1.0	22.19857	2.5336814	3.6104398	-294381.62	93610.86	-125494.734	1.7508223e9
H	1.0	0.17536217	6.977465	2.2135842	274373.72	256598.03	84906.84	1.087232e9
H	1.0	14.693296	11.384439	14.241607	735350.6	482923.88	496471.34	-1.2284827e10
H	1.0	5.4178786	3.4994712	2.4739022	-258931.25	-83211.47	433697.56	-4.5372595e9
H	1.0	8.291902	0.053514585	9.573488	360204.44	-65570.25	-174550.75	171313.17
H	1.0	8.021962	7.9883857	20.632616	-120759.09	-530125.25	59380.29	-2.2744074e9
H	1.0	16.123959	0.0019622708	3.1509826	228135.92	-163128.88	236343.0	482372.88
H	1.0	22.646276	7.5420485	11.770132	260355.22	233272.42	-67323.81	1.6696301e9
H	1.0	7.926339	19.203285	11.1972	84661.7	-25812.844	208284.75	6.1964616e9
H	1.0	22.748434	23.709986	18.538763	-388284.0	-2256.116	9480.1	-2.9877274e8
H	1.0	16.658155	15.308465	12.571702	66691.734	-37283.27	3950.2043	6.8580896e8
H	1.0	6.6103325	7.1822705	10.026733	-251584.6	78954.266	292603.0	2.7008e8
H	1.0	23.058819	12.422625	16.665861	-196781.66	-54432.047	110848.17	1.3686523e9
H	1.0	2.4725647	7.3956075	18.696846	141119.08	-17973.88	30093.6	8.3216646e8
H	1.0	15.856525	15.403684	22.87002	-120104.4	92775.266	220502.44	-102690.25
H	1.0	3.6365902	16.169703	18.458452	-212382.81	-78181.65	149390.12	40180.547
H	1.0	10.406206	6.213095	5.192865	-163706.05	-169912.0	-166402.16	-420212.38
H	1.0	4.6899624	22.318272	1.6047102	-595245.1	129270.375	31021.166	-3.934686e9
H	1.0	13.938591	20.160292	13.845914	-326437.53	295471.5	-176412.52	-616068.06
H	1.0	15.178481	5.2508674	0.8399447	-184286.05	145088.23	19804.773	-3.233443e9
H	1.0	14.9797325	1.8243282	6.3766623	172745.8	-480281.78	-217707.22	-3.1162547e9
H	1.0	15.724542	0.48047912	9.610163	-618262.8	-56852.938	150192.36	-550182.6
H	1.0	17.302038	7.9815984	21.977415	307339.2	-71330.79	231777.1	-3.752709e9
H	1.0	22.334337	23.15142	6.416255	-68456.84	-23905.5	22204.906	606531.06
H	1.0	11.980663	5.3211236	9.085055	209143.06	116799.62	-250237.69	1.1260628e6
H	1.0	12.311538	6.722547	21.117968	252795.31	-43107.316	-223470.47	538278.94
H	1.0	19.895313	9.603932	23.033182	-232197.97	-274819.34	313519.94	260391.53
H	1.0	10.762362	17.805471	21.436602	197726.28	176129.5	-79171.76	7.6386214e8
H	1.0	20.00343	19.034363	1.527472	-25066.848	155915.97	353522.75	-84126.86
H	1.0	19.199215	13.352825	19.314728	142902.1	-344166.75	29659.139	51820.44
H	1.0	14.937331	8.679751	16.500994	-178664.83	672725.1	-308316.53	326012.9
H	1.0	16.25007	5.288857	13.572516	155264.98	-92408.32	4718.7373	3.2161725e9
H	1.0	12.54504	21.995384	14.471736	58879.69	-139147.86	-585672.2	-500384.8
H	1.0	17.193718	8.397739	4.4084105	-63501.844	190648.1	-419076.2	-5686.179
H	1.0	18.92015	21.747936	2.2683227	139989.88	348489.06	-315850.06	-1.07096435e9
H	1.0	0.582172	16.269838	6.359469	-57022.035	212250.97	127385.016	754971.06
H	1.0	12.092909	10.190118	8.973547	529993.3	-58108.21	-190162.94	36332.89
H	1.0	13.074145	7.2672353	3.904098	-18384.588	-46071.855	-24681.307	197502.66
H	1.0	7.961503	12.00163	21.57947	76596.78	-341795.03	140132.39	5.1438003e8
H	1.0	6.053902	16.32263	17.042034	235603.23	317410.97	722638.06	-2.0136207e9
H	1.0	9.822455	17.800196	23.592638	102514.08	181801.16	177637.53	-2.4373747e9
H	1.0	22.595655	10.409216	15.827224	-545711.44	319507.16	-325866.22	967311.1
H	1.0	6.955499	0.12278544	7.7966723	-171190.67	212733.12	214016.19	-291546.4
H	1.0	20.308933	23.957815	3.6275897	486631.56	-193328.5	43092.3	5.323426e9
H	1.0	19.855341	18.592218	21.554615	-112256.17	308781.53	-30216.076	1.5286648e6
H	1.0	8.8335705	1.6081343	2.553	-232241.03	-241905.53	93891.95	-464861.25
H	1.0	13.691599	3.0345178	16.690443	-80961.58	378800.2	21987.537	3.616734e8
H	1.0	4.541697	10.494646	14.487747	-157179.95	47922.098	-118676.09	811403.9
H	1.0	8.547512	13.567223	0.575416	49883.188	-274948.88	-224802.47	-5.5320934e8
H	1.0	9.693083	7.7568617	2.9618955	-107614.3	-242018.22	31329.531	1.6433917e9
H	1.0	18.565302	4.6692677	0.20777978	19732.658	-323790.06	-544871.4	-3.2682345e9
H	1.0	11.464207	21.84526	2.037848	-112767.99	556376.1	63416.016	-1.7669198e9
H	1.0	11.622412	13.966487	15.808593	322841.1	-424149.0	751319.94	-8.688485e9
H	1.0	7.331133	4.415546	18.518034	119127.805	100993.26	-329165.53	5.7267103e9
H	1.0	6.7468762	9.40619	15.658336	-285642.47	421112.6	139347.48	-2.1062122e9
H	1.0	15.872635	13.470597	20.475536	-40416.33	-352803.44	-27027.02	-2.898602e9
H	1.0	13.023752	5.9138436	1.6511263	111035.91	-56196.18	-607291.5	-2.9493204e9
H	1.0	10.856053	22.671995	23.898155	-338887.88	-62964.258	-423829.9	-6.2510336e9
H	1.0	14.876486	13.64269	23.876297	600016.25	-93751.52	-78789.06	-695454.6
H	1.0	5.1255503	19.474934	4.088709	-19030.2	174944.16	504815.97	-596906.9
H	1.0	8.76618	5.775143	2.6612523	-79472.57	196282.62	227616.53	-3.2711534e9
H	1.0	23.64322	21.326197	14.599816	117922.33	-7953.788	-144230.16	2.6483407e9
H	1.0	1.9841534	15.972587	2.0236354	354684.53	-540121.6	-244510.75	-349047.0
H	1.0	19.317394	11.703779	7.1919603	165481.61	168173.97	272709.62	3.4155904e7
H	1.0	14.604748	16.674513	0.26077452	17156.227	517000.7	-342777.03	-984083.7
H	1.0	9.061045	13.659519	3.9688084	560955.7	-92424.04	-3295.171	12921.373
H	1.0	2.8914623	18.346512	22.194963	177338.78	575305.0	160165.16	1.1001382e8
H	1.0	19.371946	7.149491	12.77089	279719.6	-106241.21	-144959.97	3.3016934e9
H	1.0	11.345537	17.157278	5.326038	585994.3	109653.65	-134728.39	-534678.75
H	1.0	19.808819	23.00625	6.3926697	107122.06	343016.66	-479988.4	-1.1479084e6
H	1.0	7.9159393	16.664156	20.219028	-679287.9	-157615.05	723019.8	-1.0134517e10
H	1.0	16.509504	6.7832627	23.865686	-227353.11	185186.33	719024.9	-1.1941671e6
H	1.0	9.18201	11.905574	5.6941314	-308510.78	-442000.22	66707.0	-1.0174247e10
H	1.0	6.3774533	2.7440445	17.706427	273272.38	246831.67	2798.566	1.4547416e9
H	1.0	4.344288	7.211975	6.422203	437027.22	119312.03	-76011.81	-231269.66
H	1.0	15.130358	7.0299726	15.394237	-204894.5	197496.11	105789.6	-5.3524664e9
H	1.0	0.7349118	14.841263	11.647851	-75808.03	-12526.216	-515813.47	22855.871
H	1.0	21.310966	11.21268	23.578032	92730.8	882121.44	218568.2	-2.3053395e6
H	1.0	14.323235	1.412009	11.276401	185309.64	-359694.8	448144.47	-3.822919e8
H	1.0	4.45598	19.376827	8.35435	67513.27	100208.945	-118405.84	125954.78
H	1.0	9.606523	15.838553	9.104767	483429.1	144567.8	180345.45	9.953497e8
H	1.0	1.7514032	20.765207	23.48109	72205.11	112775.84	-6016.8765	165550.48
H	1.0	8.851663	9.694828	3.6770852	-257435.0	-468870.25	67483.03	214167.34
H	1.0	22.467287	14.568501	23.547941	15053.183	12619.755	-569903.0	-2.4142927e9
H	1.0	18.75419	1.3564575	4.2858586	-152077.31	-255352.4	-97549.83	5.2669216e8
H	1.0	12.414391	8.739173	1.3076102	-193887.66	-351294.28	-342774.16	-325896.3
H	1.0	3.1714966	2.0662844	9.912301	-149057.8	-163479.19	214179.6	6.497584e8
H	1.0	3.33872	18.204828	11.207729	54612.523	-266388.34	158748.42	7.369479e9
H	1.0	8.89435	19.335217	6.633045	-52558.24	-533159.75	-361558.4	1.8744905e9
H	1.0	18.999577	13.314617	12.315612	-621290.8	-21718.535	240242.89	-5.684487e9
H	1.0	18.845827	17.632988	4.9766207	-96479.7	-590570.56	-219956.95	-497593.1
H	1.0	7.8176064	20.782518	12.760912	-50295.75	-639326.3	-413369.6	-452390.88
H	1.0	3.5786088	8.099208	21.462969	67125.54	303622.62	-702063.1	-6.625056e9
H	1.0	10.099587	5.3989553	8.677703	408856.1	523089.3	-67375.88	-5.667432e9
H	1.0	20.66099	9.370924	4.054584	-387413.75	48083.28	467577.6	-4.25891e9
H	1.0	3.5486166	13.730519	14.202236	523666.6	-334837.94	-495482.7	-7.2382863e9
H	1.0	21.40447	1.170007	6.0675025	-291874.44	-284615.5	96055.85	-630126.56
H	1.0	6.0396905	5.627085	21.868692	-459173.3	204672.98	291935.62	-820629.8
H	1.0	19.790863	3.7634103	12.705973	37262.34	175243.25	-326477.1	2.9158364e9
H	1.0	0.5682456	10.50162	13.7973175	-207638.28	-182198.75	-150379.69	-724549.2
H	1.0	21.215109	11.677721	3.640803	-239236.83	-39431.56	-288078.8	933666.44
H	1.0	9.922592	0.35130942	14.419387	-730962.25	149876.12	-133578.73	-5.598632e9
H	1.0	13.044965	21.954136	19.006126	-19828.768	-253856.19	-105907.11	2.8784404e9
H	1.0	6.967844	10.836837	6.146124	-5983.697	-793006.0	-120955.3	-1.5728477e10
H	1.0	2.2282937	9.826202	6.776687	-11240.587	-311789.53	144136.89	1.929155e6
H	1.0	5.521919	22.79075	14.687006	-460319.2	413003.2	-89281.79	-1.3875142e6
H	1.0	2.2086248	3.4949393	18.769411	107822.98	296903.7	300024.8	-855389.1
H	1.0	4.7343	5.458748	3.8684692	600025.1	-128247.45	-314066.34	-1.5900289e9
H	1.0	3.806658	18.99459	0.2965898	-225758.7	201659.45	130496.95	1.33214936e8
H	1.0	7.363623	12.862354	8.262945	725711.1	-47391.633	-174928.27	-94912.11
H	1.0	16.748884	14.91011	14.8676	17154.195	279056.72	462462.1	4.676872e9
H	1.0	20.527697	5.189961	8.077168	-49839.15	-102384.695	-157151.36	-170765.2
H	1.0	22.785946	17.831251	24.013622	-117261.85	510352.72	-72108.57	-31686.385
H	1.0	23.085043	8.7362	22.309313	35281.906	146627.9	-83664.39	134949.81
H	1.0	10.21896	6.6953874	17.126543	-105217.71	-236850.89	334341.75	3.0362785e9
H	1.0	5.476864	12.848887	3.120702	77578.37	618118.0	436669.7	-1.3826781e6
H	1.0	22.783875	17.194973	5.5801353	143556.6	-761128.75	252606.6	-713179.2
H	1.0	18.394691	16.47734	6.8200564	-41692.516	-36527.938	75627.0	265927.75
H	1.0	20.805553	8.98367	0.6467548	182729.73	167555.4	241201.23	810172.3
H	1.0	4.9812956	3.4897046	21.908003	-52752.555	243975.77	-32978.527	-4.310974e8
H	1.0	2.966478	9.626501	17.854347	-379784.53	-232141.28	256053.77	-280961.9
H	1.0	2.325652	11.910915	0.024760308	31088.41	-181952.95	289886.9	100653.95
H	1.0	3.8120987	0.4367958	5.399094	-283900.62	-788605.1	136825.4	-1.6610169e6
H	1.0	7.2670884	14.531919	5.1180544	-148460.6	259402.56	-89658.06	384696.75
H	1.0	22.726562	16.955753	2.9418898	-321041.66	-440500.1	-107117.78	-4.920189e9
H	1.0	1.6271923	12.310664	13.156894	55076.742	-30359.22	74771.89	448082.03
H	1.0	1.3768551	22.362768	18.828714	186069.23	268144.44	379613.44	1.1429044e6
H	1.0	21.68693	11.021994	11.452458	-103272.34	626687.5	-143068.66	-680899.3
H	1.0	19.44563	8.553686	2.1020737	141026.48	-415525.72	-113189.72	223628.23
H	1.0	14.536869	20.311983	8.82025	118547.44	112611.66	58666.344	186494.34
H	1.0	7.4155016	11.471164	19.280413	-113523.125	622652.1	-470273.9	-822266.75
H	1.0	10.047791	6.868249	1.1742818	207619.14	230486.72	-61891.438	-2.3389586e9
H	1.0	23.09617	4.4447436	20.73241	132982.36	-97393.75	35404.43	-2.2434715e8
H	1.0	18.592926	11.645259	20.782728	-390867.6	-132914.77	-164321.12	-1.4508406e9
H	1.0	2.326902	20.246473	10.341304	-209539.14	-236851.16	-164831.83	243097.14
H	1.0	4.570756	23.319204	22.213905	252791.14	550044.1	-315737.2	-5.643929e8
H	1.0	18.414345	21.211233	8.419234	-499837.22	-323010.2	51874.035	-2.2251448e6
H	1.0	6.6387644	18.789368	19.440746	531531.6	71435.9	-53858.55	-132346.28
H	1.0	2.1749473	15.935098	16.682308	-158420.86	584846.25	501950.66	-1.2955825e6
H	1.0	14.139719	22.11872	11.260369	241347.02	35047.16	252957.69	3.2563185e9
H	1.0	15.658325	18.092997	21.086926	-2199.7278	374786.12	115576.61	-354734.78
H	1.0	10.195008	10.116811	5.1184874	258515.22	285041.72	-168537.55	-2.1494792e9
H	1.0	22.985174	8.760425	1.2718208	4371.4536	150395.42	469950.53	-424000.62
H	1.0	3.097263	19.274313	13.209798	-249969.08	24994.268	-69671.75	96259.625
H	1.0	6.3202834	5.4635196	13.561762	48761.56	-403004.47	5650.031	-72663.664
H	1.0	14.853805	23.901306	0.47753608	-603870.4	-1.0210484e6	626149.94	-2.1026861e10
H	1.0	18.661987	6.248326	21.281708	-29599.94	-169248.53	304535.88	1.5355293e9
H	1.0	20.233868	3.0588915	5.126574	120202.664	156347.14	-199239.05	4.655448e9
H	1.0	12.546598	21.608793	12.415946	252738.44	-218500.67	-106093.79	-7.4071725e8
H	1.0	19.985758	2.9649496	23.127909	-18075.184	398360.0	-123168.12	-1.366046e7
H	1.0	17.292498	22.971079	9.533081	-180626.3	579379.4	85904.06	-858225.25
H	1.0	23.33372	8.918182	13.95277	-260007.97	-5213.555	223450.0	-990158.0
H	1.0	2.856622	0.7568414	3.1546423	-728578.5	75833.65	-125126.54	-3.8915287e9
H	1.0	5.8006787	3.1217523	6.710978	296387.6	-308790.84	-114425.97	4.980154e9
