1000
Lattice="24.079964 24.079964 24.079964 0.0 0.0 0.0 0.0 0.0 0.0" Properties="Particle Type:S:1:Radius:R:1:Position:R:3:Velocity:R:3:Entropy:R:1" 
H	1.0	10.629128	17.73767	9.168328	-109321.25	-239786.47	430534.3	4.3978695e6
H	1.0	0.88230765	10.626883	18.114918	-287705.6	-133713.5	-79749.0	4.358684e6
He	1.0	14.978655	19.212286	18.920984	132776.53	27355.23	-265235.0	4.3876785e6
He	1.0	7.181809	10.936234	3.2375782	-247340.3	59111.297	268724.25	4.424473e6
H	1.0	20.820969	3.242005	10.949716	-553977.0	437521.22	-708083.44	4.36915e6
He	1.0	21.827726	13.917948	20.277275	383672.84	1495.8735	92003.15	4.38647e6
H	1.0	17.548624	10.662577	14.814964	-747597.4	-68119.91	-188595.39	4.392768e6
He	1.0	20.857466	10.750597	6.773598	55180.918	200514.94	-504507.7	4.39682e6
H	1.0	15.936874	23.406475	12.583637	92644.57	-127726.24	-75338.914	4.4069585e6
H	1.0	0.054887954	13.746231	18.324326	-207859.52	294389.06	-45530.773	4.3882115e6
H	1.0	9.872769	17.604204	17.993631	-645299.94	34444.59	-358998.47	4.3384855e6
He	1.0	9.406254	13.020945	3.92393	133629.81	-81810.03	-165480.38	4.39352e6
He	1.0	22.233175	9.357802	23.776722	331711.84	-92662.98	7447.0273	4.3726935e6
H	1.0	18.595718	23.770918	19.624832	-453900.88	-134391.02	-296929.6	4.3939515e6
He	1.0	3.5331793	3.7753294	8.277785	167527.36	4090.7622	-274859.8	4.3717865e6
H	1.0	20.970888	15.183026	2.8951468	34968.156	440549.3	-339079.4	4.422451e6
H	1.0	2.9747515	14.425392	5.2327485	67030.26	-143793.31	-66490.445	4.396237e6
H	1.0	21.785416	6.213408	11.549585	-82137.57	-361978.8	-444826.88	4.4169755e6
H	1.0	3.3402271	14.081727	0.8949824	86992.54	-688048.1	30411.287	4.3919125e6
He	1.0	13.502269	4.7146926	13.38519	350954.66	-194414.81	18302.742	4.366233e6
He	1.0	4.909329	4.6431756	2.069237	-420992.34	876292.56	-54436.38	4.3758625e6
He	1.0	8.155643	18.465158	14.677621	-474119.38	213019.69	-295505.84	4.422706e6
He	1.0	1.2683835	16.59247	1.0848044	130930.01	-178616.88	231228.1	4.380251e6
He	1.0	2.986522	18.459133	1.6217248	-313941.06	593330.0	-208963.27	4.417512e6
He	1.0	0.8997416	21.905151	1.519972	-751168.9	-410205.25	-134224.53	4.3893195e6
He	1.0	20.683126	7.374845	16.136477	-396969.72	7114.605	442224.22	4.413004e6
He	1.0	3.956539	21.223171	17.796429	290611.8	338627.25	275959.28	4.376225e6
H	1.0	17.561924	20.989475	22.991516	302452.7	440099.25	-234275.16	4.4102815e6
H	1.0	8.14921	15.637661	4.864829	-2849.4678	-252976.28	472878.7	4.335944e6
He	1.0	1.3706036	16.278252	3.4300237	144200.17	-106927.84	-235506.45	4.4392105e6
He	1.0	20.0005	2.9050627	3.165105	150867.12	-255476.23	-176742.19	4.385396e6
He	1.0	0.9799661	23.81607	11.845818	349757.22	-240623.97	-862142.56	4.450099e6
H	1.0	8.832396	15.160785	22.367533	173524.14	382063.88	-107178.22	4.3179e6
H	1.0	4.1825747	3.239074	21.325226	112691.36	25829.299	-349703.0	4.3730965e6
He	1.0	16.03537	8.622144	4.2296453	-140715.83	-215034.88	-431357.28	4.401644e6
H	1.0	19.942196	12.7229805	23.409698	-880103.2	167139.5	26337.066	4.390701e6
He	1.0	1.157517	17.026646	14.004393	-145685.6	-818473.9	-362216.88	4.3628215e6
H	1.0	8.750787	10.673251	18.240437	904.90546	88876.07	-407328.53	4.379396e6
He	1.0	16.702627	19.752687	2.1406791	-376043.75	-200167.17	91648.516	4.373848e6
H	1.0	19.6995	7.5910554	7.515244	200567.44	254891.77	315678.66	4.3898465e6
H	1.0	8.548808	16.519491	10.847132	-379297.34	-379315.06	137378.45	4.4293445e6
H	1.0	14.852423	1.3621191	6.8517246	-50247.41	-401177.53	-159475.69	4.3606085e6
He	1.0	12.556831	13.559249	19.162283	-278107.9	-199516.3	-116650.28	4.3079225e6
He	1.0	7.450466	17.07267	9.306613	483989.03	-453843.4	233493.36	4.3647155e6
H	1.0	7.2950096	20.067373	20.44329	-131766.48	300422.22	-300263.28	4.3978825e6
He	1.0	10.982555	10.364783	7.094177	-125145.98	-160856.61	165469.52	4.3429085e6
H	1.0	8.115036	23.289923	22.408644	15813.357	328513.25	421282.62	4.429103e6
He	1.0	8.063807	15.301089	15.25723	111989.95	-177559.55	-160498.83	4.353825e6
H	1.0	8.679196	14.649602	17.504747	-36875.7	-71473.6	77090.82	4.3814665e6
He	1.0	22.14802	7.768371	2.435413	-223587.72	131167.45	240338.83	4.4134665e6
He	1.0	10.3678465	18.550098	7.0989637	-92069.14	327456.47	88370.48	4.384949e6
He	1.0	10.67238	10.753304	20.134169	439184.44	538246.9	-62928.918	4.392043e6
H	1.0	21.05668	14.999226	8.939254	100452.38	-6927.9995	71509.336	4.395832e6
He	1.0	11.409589	7.703907	21.829895	207529.73	175641.8	692675.3	4.4143515e6
He	1.0	17.952946	21.422495	14.293002	-180976.19	350003.38	27176.086	4.383759e6
He	1.0	2.7621725	18.3863	7.0425506	-196068.56	-18109.541	462639.94	4.3701955e6
He	1.0	6.945781	1.4834919	19.742174	-58453.203	-19568.355	-264611.28	4.423292e6
He	1.0	17.329311	17.959139	13.579603	-204435.6	-141082.4	-140509.9	4.4133625e6
He	1.0	14.476986	23.536167	14.22523	-55674.91	-46204.48	-69783.15	4.384818e6
H	1.0	0.8494893	16.112715	21.262026	-43441.0	481838.97	-742292.0	4.353186e6
H	1.0	16.081903	18.986944	22.402931	-219751.73	2064.5266	-506120.25	4.3997185e6
He	1.0	1.221314	2.4698336	22.003246	-22895.143	-270383.8	-418469.88	4.4011195e6
He	1.0	23.410398	9.1142025	7.825826	-363774.47	166623.81	152993.77	4.36233e6
He	1.0	16.15497	22.259562	8.114903	396515.72	6496.997	341406.16	4.3675905e6
H	1.0	21.3201	12.3485775	16.762054	268173.94	484338.6	-67531.18	4.381748e6
He	1.0	11.506973	15.934534	14.847604	-79756.89	75533.71	698302.94	4.3451735e6
He	1.0	6.6804023	7.753912	8.40228	306902.25	187494.11	-206963.58	4.4345615e6
He	1.0	18.33361	15.704011	16.922886	-38778.594	-361301.28	-26655.166	4.4522385e6
H	1.0	8.719228	19.135557	6.0574126	-183860.42	406105.53	355668.03	4.3832165e6
He	1.0	6.206125	11.387849	0.33449072	89294.664	-364294.97	-500981.06	4.3656625e6
He	1.0	23.97138	2.9636338	5.6212435	104099.445	-230540.83	211113.7	4.4351175e6
He	1.0	6.87865	4.6810412	12.994426	-230356.97	-176168.25	848929.75	4.390338e6
H	1.0	7.4249544	0.6780523	17.540472	89002.98	310683.25	222366.03	4.4177335e6
He	1.0	17.124825	4.0531974	20.978128	240065.69	-134409.61	-100433.836	4.3873155e6
H	1.0	0.48398358	4.7042184	15.519122	431939.53	-530263.56	-138766.56	4.382023e6
He	1.0	6.890064	4.895549	0.6499766	-184090.83	-263041.94	-121475.49	4.3779975e6
H	1.0	9.323934	5.4937153	16.45842	571038.06	73844.766	810827.25	4.367751e6
He	1.0	22.07422	4.3103805	19.187037	50182.383	104061.41	201549.88	4.34976e6
He	1.0	6.1421585	15.149986	10.4191065	243155.27	36685.97	240728.16	4.3824425e6
H	1.0	11.966213	4.3349423	19.655272	433600.16	-217916.97	42527.82	4.4697605e6
H	1.0	21.343567	9.055919	11.712622	60684.508	124628.73	368126.9	4.3730445e6
He	1.0	6.2295337	20.941645	0.2854212	-105951.695	-161552.14	95882.97	4.42927e6
He	1.0	17.325258	17.47423	3.9144688	284074.5	432748.34	397282.25	4.3380455e6
H	1.0	7.9476824	15.643314	1.4525248	-155924.4	-65282.836	59270.62	4.3909525e6
He	1.0	0.09909389	2.6254508	12.066953	-469133.7	296200.72	87867.34	4.3764535e6
He	1.0	22.219553	4.9318223	22.868027	-448012.22	394584.72	-125194.234	4.364354e6
He	1.0	13.510758	6.650779	13.090742	341599.16	115987.37	119844.766	4.370476e6
He	1.0	15.175448	21.234312	5.058114	27363.996	285929.47	299662.75	4.359929e6
He	1.0	0.4134031	14.684554	0.6192696	275368.78	64808.082	-176301.89	4.3359975e6
H	1.0	0.8794003	4.107433	3.6033807	267324.34	615570.8	-388720.03	4.379845e6
H	1.0	7.45241	13.05109	0.10847947	130298.75	369537.78	-169598.75	4.3811165e6
He	1.0	1.221083	10.273365	8.764015	251546.6	102450.33	47899.46	4.446853e6
He	1.0	5.088663	22.948359	22.80127	-268589.44	-523490.5	-75346.25	4.368321e6
H	1.0	22.231121	7.6828713	4.4987197	342128.44	39847.05	47950.64	4.388309e6
H	1.0	22.606588	22.827734	1.6569207	-491932.78	-208013.03	52586.074	4.4247185e6
H	1.0	0.02608598	8.376155	1.7920675	-544289.8	44126.066	-75102.99	4.3695025e6
H	1.0	23.979416	10.928087	22.722273	178171.44	-3238.1174	-884304.8	4.37494e6
H	1.0	16.73504	12.783584	15.527798	204138.64	-265602.12	55811.02	4.3793815e6
H	1.0	4.7767496	12.530372	18.309774	603255.44	151118.34	275605.0	4.389383e6
He	1.0	22.86046	9.597308	5.747885	219605.61	-205423.36	1160.558	4.380542e6
H	1.0	1.1628593	20.064585	22.221003	238947.67	-273439.8	-529415.06	4.3754435e6
H	1.0	14.197373	18.918802	12.426083	153040.28	-487614.53	-116209.086	4.3698935e6
H	1.0	1.7734284	8.214449	18.058659	155242.55	-99372.74	113632.125	4.4022355e6
H	1.0	22.586443	3.2698855	21.096436	674070.0	75470.875	-55415.652	4.3107815e6
H	1.0	22.437202	14.37179	1.2272443	72215.4	-110916.25	361499.78	4.3793515e6
H	1.0	3.563975	18.825153	23.625963	-526218.0	274327.34	4986.597	4.3871445e6
He	1.0	13.235983	13.389338	10.9443245	654972.2	36765.652	350219.1	4.4144275e6
He	1.0	9.346465	8.834104	19.217094	113151.67	46461.92	-732338.9	4.3494885e6
He	1.0	15.103927	14.693166	19.732471	99214.79	158854.83	-212834.69	4.4011385e6
H	1.0	2.2304978	8.905517	10.890375	412647.84	458888.62	355987.53	4.3671575e6
H	1.0	12.570671	20.99363	3.7298014	-294519.72	-91748.58	-341918.72	4.3656875e6
He	1.0	19.94536	23.452372	7.3135533	-329704.78	170719.81	393850.3	4.42396e6
He	1.0	19.72142	6.016391	22.383783	289083.25	-134420.34	265715.3	4.3571905e6
He	1.0	15.946349	9.769039	15.974602	138714.27	-194231.64	-114811.12	4.3675325e6
H	1.0	14.749461	19.1568	8.113641	117867.59	-279912.06	122575.414	4.376898e6
He	1.0	5.3236265	9.049465	1.1883792	-63346.66	103798.48	496885.1	4.335302e6
H	1.0	0.84107894	7.1545787	7.7636967	134008.83	-372195.03	178486.94	4.345022e6
He	1.0	8.1546	9.94859	0.40860853	435161.78	108649.48	-57447.746	4.40237e6
He	1.0	14.47277	22.923874	18.65493	-617026.5	-263840.44	38134.367	4.378397e6
He	1.0	22.00329	20.407476	7.4531717	88614.91	381543.03	39634.1	4.349166e6
H	1.0	11.773172	2.8950655	2.262311	407702.3	218235.12	-254845.38	4.3289785e6
H	1.0	13.642646	23.300745	11.007518	-488037.06	-285245.03	153089.0	4.383808e6
H	1.0	4.821701	11.419225	7.827364	-211074.44	-250194.45	102607.984	4.4444625e6
H	1.0	17.725574	15.20809	4.097682	-152629.83	29408.025	40182.934	4.386968e6
H	1.0	22.726889	19.407803	14.655755	582405.06	-303591.84	155909.48	4.3830065e6
H	1.0	9.459763	4.0582294	21.060606	-219155.8	-192053.75	20423.29	4.3625015e6
He	1.0	17.203253	11.047344	10.1522875	103445.37	109781.266	465598.16	4.3951075e6
He	1.0	18.67413	17.15639	15.376818	504626.53	347968.94	715328.8	4.371643e6
He	1.0	22.668882	13.058226	4.965991	179926.8	203793.22	241129.61	4.349914e6
H	1.0	20.395582	15.900027	11.84214	-256067.1	-412458.0	-164114.19	4.392017e6
H	1.0	9.935081	15.797534	1.7136656	-687861.44	-158257.19	64911.918	4.3494985e6
He	1.0	20.539864	15.732391	17.032581	600979.9	222258.6	734176.75	4.381421e6
H	1.0	15.6753025	21.671808	11.449869	-137386.33	250991.64	139090.02	4.3871785e6
He	1.0	12.280136	7.7370543	5.1584024	65209.043	-78624.984	216439.8	4.4104925e6
He	1.0	22.854734	21.40267	15.572664	-40208.582	423030.22	356230.38	4.441738e6
H	1.0	12.027065	19.204117	13.182555	180246.48	-24279.264	-549997.5	4.355197e6
He	1.0	17.280216	7.7143145	18.381151	-446929.28	-62453.71	419567.16	4.421045e6
He	1.0	16.865923	15.529841	14.532454	-246938.94	2345.2537	-20183.059	4.4036385e6
H	1.0	5.093741	1.1701219	17.64159	-30989.385	251580.95	-593054.7	4.3868515e6
H	1.0	22.467995	4.6310754	5.920621	8427.68	597724.3	-25398.893	4.4330305e6
He	1.0	22.63043	7.9047723	9.152143	380145.0	-312486.16	-2314.5417	4.4549165e6
H	1.0	0.3388457	23.21831	7.395033	-669777.1	-88593.34	-180523.48	4.3969595e6
H	1.0	10.858512	15.163999	23.067358	556844.25	415698.47	-328998.1	4.4129725e6
He	1.0	7.8622937	12.95607	13.031448	769731.5	50091.617	-273927.72	4.4166425e6
H	1.0	22.183	13.821235	15.721577	-186411.48	-717573.4	-573673.2	4.385213e6
H	1.0	16.806097	7.154126	20.347475	-258325.31	245679.9	312536.6	4.396804e6
H	1.0	15.476814	16.116491	23.65609	473969.22	-69065.6	230062.6	4.420143e6
He	1.0	13.514651	12.792746	13.927488	-616586.25	-41408.92	-141244.08	4.3501525e6
He	1.0	1.661295	20.637245	3.4882975	-658810.0	50505.125	-134538.42	4.357752e6
H	1.0	0.9430734	1.74136	15.038113	-345824.47	-195762.06	-133721.94	4.391815e6
He	1.0	9.962299	12.252632	19.191198	244057.8	-57088.16	-83342.9	4.3448335e6
He	1.0	23.07363	17.644466	13.485779	-471615.34	-32297.59	395575.8	4.393082e6
He	1.0	17.773588	0.088152304	12.104309	-369847.47	-483231.94	-9049.716	4.392156e6
H	1.0	16.575323	23.967596	19.417036	-753079.25	138234.64	193093.08	4.3410035e6
H	1.0	19.28042	19.950113	21.211508	86168.88	23190.281	293997.62	4.384639e6
He	1.0	13.095773	8.200062	2.801749	128255.35	122011.71	-322239.9	4.3903005e6
He	1.0	23.140722	14.566665	7.6399226	292589.8	331978.03	-31077.316	4.375336e6
H	1.0	4.8500276	11.883028	13.093322	-214270.58	191225.8	-149169.73	4.3857735e6
He	1.0	2.1880958	11.646648	12.022684	-35635.035	329551.44	-63959.168	4.391329e6
He	1.0	23.468214	17.376331	10.68329	-551401.8	-785192.2	13785.884	4.452783e6
H	1.0	8.086292	8.812167	2.3264627	73345.64	312409.6	-102187.055	4.36135e6
He	1.0	16.429195	20.57666	19.825272	-607073.8	-130673.27	-321312.88	4.408641e6
H	1.0	20.291187	12.546964	1.5840383	-185291.33	-106000.1	-139119.31	4.336929e6
H	1.0	5.3831277	19.551275	20.965763	3412.5315	-139914.28	231271.78	4.4187475e6
H	1.0	21.793083	13.119004	3.1568158	530463.0	-173647.62	-285750.8	4.393864e6
H	1.0	7.315358	3.1303325	5.979946	-92084.44	-674497.06	203579.36	4.4325735e6
H	1.0	2.6405094	23.981232	2.957515	26395.102	-284938.84	630885.1	4.3842e6
He	1.0	10.595891	6.846637	14.67714	289521.94	163455.77	471807.5	4.3236595e6
He	1.0	7.3398128	15.628147	19.020247	-391339.78	313975.62	-238671.97	4.3658405e6
H	1.0	23.93409	16.511988	15.367406	-317788.62	-202964.55	160553.3	4.346616e6
He	1.0	6.184084	6.016306	21.475443	-95297.125	256953.75	-379055.66	4.383755e6
H	1.0	0.083407536	4.4877124	0.07717301	-248384.36	671133.06	764249.2	4.3674625e6
H	1.0	9.465766	21.45383	10.579315	-70522.914	-450869.47	-206865.52	4.3691765e6
He	1.0	1.3400038	18.100271	10.615505	-384786.7	-340325.75	-126781.44	4.393164e6
He	1.0	0.47412696	2.021363	17.865465	257628.6	-716930.25	502866.4	4.363113e6
H	1.0	12.8836	8.549127	0.3469156	-148125.7	-101899.914	-453154.06	4.3673935e6
H	1.0	16.75235	19.478558	11.234842	-261434.77	193296.38	-360587.56	4.420883e6
H	1.0	2.6935174	17.716843	19.615438	-194729.55	-215154.69	263168.53	4.3710895e6
H	1.0	16.357737	6.856674	10.89342	453388.84	236601.98	63132.953	4.4008215e6
He	1.0	22.642885	6.971406	15.225483	60037.11	-83943.92	38319.496	4.401541e6
H	1.0	12.086769	8.977841	8.139708	918119.25	73948.15	-75176.03	4.322801e6
H	1.0	5.9610653	21.682943	3.1769142	-340930.66	232813.62	237750.23	4.401834e6
H	1.0	7.032817	6.5983677	19.02916	-230575.36	-10112.916	-963620.25	4.4110155e6
He	1.0	18.054373	16.422436	22.224152	77536.37	293948.53	-109637.11	4.391729e6
He	1.0	3.0959694	1.5667814	17.680847	-289397.5	-440849.06	-132992.9	4.363294e6
H	1.0	10.636392	15.312354	19.308468	-462956.53	107408.68	235006.64	4.3749915e6
He	1.0	2.947397	4.70801	0.7650292	303759.06	-388627.1	-349055.75	4.404115e6
He	1.0	22.038141	13.463676	9.721777	-218202.84	-240845.66	16639.217	4.3944135e6
He	1.0	3.5228364	23.78766	4.917944	-442514.28	516949.75	271257.97	4.423501e6
He	1.0	19.578518	8.43307	5.1875777	-396836.12	-140857.67	-113110.5	4.375832e6
He	1.0	16.51148	11.246656	18.147203	-337985.97	-174690.86	-83523.09	4.329831e6
H	1.0	7.9493084	18.810976	10.038446	-247932.61	-181605.11	-263411.25	4.397441e6
He	1.0	1.9261973	3.3769903	2.0816321	-226206.17	37539.46	-275571.12	4.395567e6
H	1.0	1.2815077	14.370236	16.85323	293467.75	-484468.72	141167.03	4.379612e6
H	1.0	20.2809	4.165203	18.598085	30051.543	133726.92	-216822.97	4.370613e6
H	1.0	10.270263	21.844574	23.35843	-183848.42	-313231.7	815826.75	4.384174e6
H	1.0	20.114906	8.555999	20.582098	-98600.945	-169965.08	495164.1	4.3763425e6
H	1.0	7.2828465	5.0759516	6.873088	86456.98	-141158.62	-285292.7	4.392349e6
He	1.0	6.5357203	4.553926	8.702727	223282.86	-113432.695	-400439.22	4.3776005e6
H	1.0	4.526753	13.907767	7.128088	-223876.0	69611.234	142221.61	4.3338305e6
H	1.0	17.911274	22.803402	6.8672156	406934.34	-111228.92	-395563.1	4.365758e6
H	1.0	7.4531937	6.470499	10.3436	213137.05	-45372.05	-672989.3	4.3375815e6
He	1.0	16.394308	3.0963657	16.627354	470531.25	-257799.78	-488891.25	4.413251e6
He	1.0	12.174457	5.360831	3.7603493	422550.03	-405831.9	-31880.354	4.4059315e6
H	1.0	0.57910264	11.938256	16.256273	132005.69	523052.38	165083.22	4.3931845e6
He	1.0	6.4900594	1.4473379	14.917117	324315.53	-138297.36	-43756.535	4.348722e6
He	1.0	5.009403	19.099089	1.1871978	-155925.34	-162280.52	-38408.42	4.406295e6
H	1.0	23.540794	9.685023	17.083647	800587.94	-31676.111	-56691.344	4.385332e6
He	1.0	19.535393	23.737514	17.80291	37378.348	439045.1	-458837.8	4.326651e6
He	1.0	1.0578558	6.507025	15.100294	-817.8428	248806.77	653895.75	4.392286e6
He	1.0	17.935966	15.236132	6.678974	76299.75	136114.03	-430689.84	4.391431e6
He	1.0	23.059074	12.029839	20.231096	-105135.46	167242.33	189284.69	4.3411565e6
H	1.0	2.7570384	15.711291	20.15843	152136.33	-157647.53	357156.78	4.426416e6
He	1.0	19.596697	3.3684323	13.021047	-145867.34	718530.56	40829.785	4.414676e6
He	1.0	16.223269	13.364464	23.883633	110965.91	198718.22	-430552.34	4.379746e6
He	1.0	4.184531	12.582641	23.121603	331690.28	-120747.59	-290855.4	4.431925e6
He	1.0	2.7066526	18.440914	4.8185453	-19375.473	85787.41	-77433.44	4.393295e6
He	1.0	11.360192	12.014703	22.490334	-33521.47	-171257.44	-347729.72	4.4078245e6
He	1.0	23.568617	6.2556696	10.30573	437401.06	-70786.63	336873.97	4.386967e6
He	1.0	4.786038	18.870981	16.28942	-49385.71	45975.242	-349164.3	4.374534e6
H	1.0	11.606459	17.592697	0.61009127	537366.44	-302938.62	43627.625	4.457516e6
H	1.0	10.583156	6.8000326	0.045682997	8832.148	142338.81	-273495.94	4.412507e6
H	1.0	19.126354	7.418758	1.9395825	-352159.84	-239552.12	94302.13	4.419797e6
He	1.0	13.41265	10.040521	22.089714	128386.04	48368.383	-19193.35	4.3978385e6
H	1.0	8.141385	19.872828	12.709656	-546610.06	-302017.03	206129.98	4.3840915e6
He	1.0	4.4423943	22.910242	2.951581	386914.22	-144385.69	414935.0	4.3941405e6
H	1.0	1.7570258	9.900644	23.30789	484812.4	-228714.22	88641.92	4.4156485e6
He	1.0	16.170101	20.379612	7.035708	464532.53	128736.57	2424.396	4.380721e6
H	1.0	19.069008	4.585038	11.116556	149272.69	190444.2	222695.6	4.327985e6
H	1.0	22.186466	14.59768	17.508436	238496.12	-480671.97	203030.88	4.3776785e6
H	1.0	7.6271763	22.072973	11.91021	-675951.7	500532.03	-507612.53	4.393261e6
He	1.0	8.9080515	22.122156	5.686379	-493310.66	52391.367	597127.6	4.3653805e6
He	1.0	15.339354	7.567137	22.128788	-272729.28	-384511.56	-368546.9	4.3750995e6
H	1.0	5.0107875	3.4994118	9.601281	316101.34	283356.72	166814.23	4.324156e6
He	1.0	13.5852785	11.777943	6.9553194	-278025.7	-294554.78	-519759.56	4.395044e6
H	1.0	23.50613	23.43215	10.677394	-693533.4	569884.94	-27431.781	4.4089165e6
H	1.0	17.749706	16.160368	0.43848404	-351246.28	482913.34	212154.11	4.352171e6
He	1.0	3.590112	2.2050989	12.978404	-130632.43	-327330.53	-20064.592	4.3720575e6
H	1.0	23.456007	22.447823	4.5813937	20317.291	-256274.23	304340.12	4.3895015e6
H	1.0	21.104832	4.720607	12.652687	383635.88	-102331.07	-192168.42	4.381278e6
He	1.0	17.610306	19.733232	5.411545	-101715.89	677753.1	-98512.65	4.37513e6
H	1.0	23.361223	7.1580567	22.743065	-20523.143	336574.12	66356.16	4.484219e6
He	1.0	16.820938	2.0979192	14.555312	223927.92	-179117.7	99968.375	4.436812e6
He	1.0	12.728886	14.077399	8.040765	322366.3	229831.17	151740.94	4.407273e6
He	1.0	15.326485	11.94895	20.756475	215523.25	758615.94	173915.28	4.3961e6
H	1.0	12.481565	1.32627	13.864309	10145.535	282405.4	255608.34	4.4124945e6
He	1.0	5.8262305	1.3217702	4.7211933	-158321.66	-150523.67	50624.168	4.363487e6
He	1.0	4.4817805	8.5846	9.786907	109222.43	106506.72	521555.66	4.3975745e6
H	1.0	10.108894	13.387663	8.45771	-538614.0	-570825.7	-27160.17	4.3713015e6
He	1.0	0.16657527	19.9583	6.760426	-17499.514	174882.7	-87433.28	4.3991155e6
He	1.0	14.398918	14.670821	21.721863	574905.4	-89112.484	131078.16	4.4342275e6
H	1.0	9.268852	17.86763	4.0539165	-190601.61	42277.477	-96951.805	4.4255805e6
H	1.0	23.666386	14.845045	10.68231	-347.857	10377.979	49892.004	4.423688e6
H	1.0	7.9958787	17.460192	7.2663784	16170.299	-158797.25	47543.594	4.415632e6
H	1.0	8.317002	16.86229	16.5397	196479.7	-257955.67	-241179.78	4.368862e6
He	1.0	3.876773	4.9687743	16.538712	-94515.79	-369516.1	408756.28	4.362597e6
He	1.0	13.583838	5.726149	20.63908	-103037.51	37036.633	96298.195	4.3960335e6
H	1.0	12.480408	17.478395	18.421902	-354491.47	-90931.84	32257.725	4.3707645e6
H	1.0	22.07457	22.385345	21.125248	245941.2	70519.32	-35464.88	4.348055e6
He	1.0	13.587747	14.815726	4.872465	158626.6	-216064.8	117510.24	4.364177e6
He	1.0	11.178717	21.858877	9.098343	-308362.5	517084.53	484254.66	4.353644e6
H	1.0	5.0391316	10.686813	21.050154	22000.361	-256439.58	262791.34	4.3681865e6
H	1.0	14.236813	22.497896	3.5307758	549065.25	-586182.9	-207740.33	4.3583645e6
He	1.0	9.634696	2.8775744	13.73502	255752.47	195708.7	-345838.0	4.3636585e6
H	1.0	13.593277	3.1598349	1.4273932	287104.12	258119.89	-91723.1	4.359638e6
H	1.0	7.46365	21.152575	18.533833	-117511.44	-102818.016	410081.1	4.41119e6
He	1.0	21.225437	22.456776	14.639361	-801246.06	495824.03	-232155.72	4.4118735e6
He	1.0	15.975856	8.180957	13.160311	258900.55	-155346.62	-466296.34	4.348936e6
H	1.0	16.195124	10.164762	0.8642676	-264953.0	95531.58	164325.92	4.371193e6
He	1.0	19.586035	13.472466	3.5140884	313458.94	359032.8	-239494.62	4.381007e6
H	1.0	18.431746	17.230982	2.0616512	294743.5	647214.06	531808.3	4.3158215e6
H	1.0	2.5918303	22.397194	23.256329	82706.766	256045.64	-188019.34	4.3471805e6
H	1.0	1.0996747	10.231652	2.3443606	254285.39	25041.588	-131563.62	4.3526165e6
H	1.0	5.6224737	9.114826	12.483471	278926.5	-199277.66	138584.44	4.4376855e6
He	1.0	1.6269995	18.18237	23.102175	87757.086	-102343.98	-52804.734	4.3878265e6
He	1.0	10.529323	7.3172984	7.130469	-51599.953	321469.66	-186084.05	4.3811295e6
He	1.0	12.856018	23.040705	9.188499	543394.06	19723.729	158383.5	4.3152505e6
H	1.0	5.645798	15.325229	19.97959	-195944.92	-512014.47	228547.19	4.406079e6
H	1.0	10.334164	15.507866	4.880422	356966.94	69725.99	607.00073	4.4128945e6
He	1.0	17.011887	8.546007	7.842272	-586020.4	76862.64	-189326.98	4.3643135e6
H	1.0	10.105744	16.58647	6.690721	-363023.4	-31328.572	-287369.66	4.371651e6
He	1.0	4.7817726	7.815804	14.10369	-56025.95	-485840.66	110303.5	4.384251e6
He	1.0	6.813472	13.641673	16.117506	-530882.3	223868.39	-791079.9	4.34635e6
He	1.0	19.200102	24.049587	5.450754	-71257.86	-78856.65	-173116.03	4.449514e6
He	1.0	5.151166	17.549364	10.516937	199900.17	-3635.3665	219595.56	4.3923775e6
He	1.0	3.641275	10.1824045	11.379939	-86018.73	-507122.8	280116.9	4.4126895e6
He	1.0	8.3328905	23.631315	16.139292	302817.38	-320424.6	376508.53	4.3924055e6
He	1.0	9.557232	1.4945973	15.994289	-185629.33	-234591.42	97939.27	4.4293865e6
H	1.0	3.854571	1.5955787	19.525373	-270237.38	380053.8	-267938.2	4.395359e6
H	1.0	13.03799	5.0982714	16.60839	-337619.22	-62105.87	-80809.18	4.3501545e6
He	1.0	5.7000995	6.3279243	5.0936475	-53817.984	-210830.64	-610933.1	4.408242e6
He	1.0	0.86754423	22.91503	15.532863	-200261.86	-180683.27	-2401.575	4.384888e6
He	1.0	17.43857	16.963337	10.040096	-118563.14	-424773.8	-348942.34	4.3967495e6
H	1.0	7.642747	11.562309	7.724275	728153.6	247710.52	-190737.27	4.348959e6
He	1.0	17.516048	22.123135	9.659184	-13301.656	116477.13	-259920.1	4.3969295e6
H	1.0	5.891664	17.281784	4.3487067	132924.08	45280.09	336035.06	4.3433515e6
H	1.0	7.228618	6.6813855	14.023759	-54794.59	292506.88	-8307.243	4.416056e6
He	1.0	0.9768611	13.620346	9.04533	3347.5798	-357344.5	179552.33	4.349037e6
H	1.0	4.9256883	5.32164	23.67666	-62048.492	102047.555	166406.73	4.3834045e6
H	1.0	14.6486225	6.7325845	3.6889913	-264805.75	169879.7	644680.94	4.373096e6
He	1.0	15.684014	19.047457	15.726647	409871.44	-210477.4	54451.055	4.373808e6
H	1.0	6.0302916	14.573423	1.075961	-228055.34	-313760.56	33818.523	4.390319e6
He	1.0	8.0080805	14.5395155	8.008371	-246907.5	-130858.19	91054.09	4.3970635e6
H	1.0	8.09508	11.8935375	9.664464	-107405.375	531710.5	591261.94	4.3923505e6
H	1.0	5.709384	21.288519	5.190521	397485.66	330051.16	-66929.414	4.3095545e6
He	1.0	3.0958767	23.043255	16.217472	203746.73	-341692.5	-227719.5	4.4362e6
He	1.0	8.155864	23.598076	10.761407	-282882.2	-4210.265	85580.22	4.331724e6
He	1.0	18.30841	18.374376	22.02884	-214331.84	-8885.136	267251.78	4.4287195e6
H	1.0	17.53328	6.96945	4.052042	-55573.12	102562.945	-116331.24	4.396929e6
He	1.0	13.69893	19.489397	15.309816	818580.3	23400.361	-31069.686	4.346868e6
He	1.0	17.39541	6.664931	13.662036	153314.53	134300.9	217913.98	4.353767e6
He	1.0	7.5146008	5.924744	3.5252514	-238787.0	340887.75	689188.25	4.387405e6
H	1.0	18.66251	20.29162	3.5599885	411295.25	-266846.5	-158884.42	4.347307e6
He	1.0	5.174302	23.631153	0.7653085	195092.6	602277.0	7171.8486	4.3454745e6
H	1.0	0.6325778	4.732827	6.579316	-378450.12	248226.5	305654.53	4.3423e6
He	1.0	11.454352	15.879041	11.304413	55735.977	445124.38	115824.68	4.3712505e6
He	1.0	10.826529	2.4194813	11.16882	247370.08	119716.164	-59450.066	4.4075695e6
He	1.0	5.1775546	3.9642742	19.181974	201282.69	317480.12	-216495.0	4.4326295e6
H	1.0	11.558296	22.962458	13.481022	159793.14	-196524.62	-375054.22	4.402863e6
H	1.0	15.317582	22.486507	16.08016	56996.08	345409.6	298236.47	4.41726e6
He	1.0	19.942205	0.9335787	23.896172	538383.7	350495.6	64078.79	4.368573e6
He	1.0	18.759176	21.70268	20.274023	-154838.03	88245.61	113807.07	4.386568e6
H	1.0	8.390797	4.2192335	11.763483	167514.28	63011.645	48667.887	4.3784835e6
H	1.0	11.927323	5.035013	11.908784	-232239.75	75577.15	529523.25	4.3863625e6
He	1.0	9.664838	6.3370833	11.902877	-732211.25	-309741.88	-133990.58	4.4132355e6
He	1.0	8.578481	3.2157743	16.50386	744877.8	-129546.03	-19332.5	4.363955e6
H	1.0	24.041824	0.37090373	16.363401	-4484.3755	-179281.45	367672.7	4.3271785e6
He	1.0	6.5353856	6.973839	1.6240042	-116796.31	116649.016	-324958.66	4.3830015e6
H	1.0	12.665635	12.140293	15.613151	-134339.72	-614089.94	-160853.62	4.3543845e6
H	1.0	9.112625	12.53802	6.1884527	-204407.12	-226094.86	-48283.113	4.446786e6
H	1.0	13.29222	0.5174264	1.6645133	-24229.291	-597722.2	-139560.66	4.411267e6
He	1.0	23.855965	9.1029825	3.9317312	287479.6	680693.56	383331.06	4.3666045e6
H	1.0	15.1322	13.143754	9.031956	-541262.25	-168485.08	-729559.6	4.3753175e6
H	1.0	0.14295025	3.6159072	10.271784	77696.34	-265734.8	-56784.168	4.4066315e6
H	1.0	5.1644964	17.567385	12.809329	-307476.88	322772.22	235464.67	4.381997e6
H	1.0	6.2230577	11.7467785	22.566734	76596.09	146612.22	64832.09	4.3872675e6
H	1.0	19.560457	16.254492	20.665302	-483124.8	124580.45	85580.22	4.3961275e6
He	1.0	6.5042753	21.335905	22.024008	33510.72	602634.3	69102.72	4.3368825e6
H	1.0	20.673813	19.164392	8.493954	-20690.84	320600.56	102520.68	4.4402e6
H	1.0	6.9796705	18.260878	11.856697	477271.97	292740.2	-180784.22	4.3475245e6
He	1.0	4.511842	12.480734	1.1838748	-388841.34	656495.6	16556.324	4.384276e6
H	1.0	5.4669867	19.482864	10.256726	352295.7	-186718.2	1272.1481	4.3408225e6
H	1.0	20.744085	23.254038	4.458105	291364.12	-142102.42	184203.9	4.4082755e6
He	1.0	3.1030731	11.304614	19.629642	-97686.17	239681.81	-343286.47	4.4035425e6
He	1.0	13.747105	5.169333	5.0735083	254120.17	484062.88	-173994.62	4.405996e6
H	1.0	12.268129	10.788895	2.5273845	111810.87	281037.38	300669.0	4.4093435e6
H	1.0	12.290029	4.5924945	9.91239	683712.44	-6154.6626	563416.9	4.3687115e6
H	1.0	6.008889	20.157904	17.658613	148905.2	204891.02	59439.227	4.390918e6
H	1.0	13.803344	1.8410263	23.898329	264777.3	180469.5	531320.7	4.4042585e6
H	1.0	16.862793	6.56447	7.534734	-167926.36	283475.4	453818.16	4.407001e6
H	1.0	19.351412	17.217222	10.799747	-192299.9	-588906.2	-276427.56	4.415085e6
He	1.0	21.23376	0.5827025	2.0794473	87658.57	248560.36	264989.72	4.3920515e6
H	1.0	23.523966	5.453384	17.615154	579776.2	114375.766	118654.58	4.4129925e6
He	1.0	20.310272	19.797642	14.585845	-75452.83	-65542.67	-369839.62	4.32572e6
H	1.0	5.0894957	3.3197074	14.55978	-207678.28	83691.87	-413621.0	4.399468e6
He	1.0	3.7909389	22.29237	12.765375	-223436.72	795954.6	237954.31	4.3896425e6
He	1.0	17.343851	17.982807	23.86383	264827.7	108735.25	415396.0	4.3706565e6
H	1.0	5.838837	4.8830514	3.7824605	-10369.553	-7942.3545	-463462.06	4.4030175e6
H	1.0	20.001812	11.928029	19.84197	109241.99	158732.42	-96406.98	4.371106e6
H	1.0	0.6860166	0.8837456	6.12887	-161855.7	-533512.8	-183377.58	4.3395185e6
H	1.0	10.4153805	23.349321	7.130626	-329677.28	-24307.627	-360483.44	4.381322e6
H	1.0	13.81691	21.243423	8.9887495	118369.71	93668.75	-181720.78	4.29098e6
He	1.0	5.774315	18.094248	22.864777	22125.773	143193.56	-21797.533	4.396021e6
H	1.0	0.5770666	20.74401	8.521708	-214066.12	-104722.86	-512427.06	4.3558905e6
H	1.0	5.2799454	16.529713	8.558785	-19377.852	100484.48	234792.45	4.388981e6
He	1.0	0.52723455	20.35495	15.002494	-15198.172	223343.73	-554380.4	4.3280895e6
He	1.0	9.060984	7.4231977	21.96326	188492.88	503970.12	65989.26	4.3474905e6
H	1.0	2.7587967	20.718311	7.622133	435929.53	-452331.25	-58361.406	4.3869435e6
He	1.0	10.014035	0.9789358	12.646919	286863.47	482033.0	49352.77	4.397493e6
He	1.0	13.944176	2.059494	21.503757	-168665.25	232057.52	-24690.094	4.3907005e6
He	1.0	11.764315	0.20387918	12.02802	-52823.12	-25145.92	174899.22	4.409368e6
H	1.0	14.78853	23.482986	9.077574	9556.79	-95101.39	-238123.03	4.4129705e6
H	1.0	1.6413896	13.1709	4.696294	161345.83	49857.88	-114016.44	4.3650785e6
H	1.0	2.647799	7.489633	9.24609	-254059.55	-794018.25	-22434.602	4.3433305e6
H	1.0	20.804882	12.461474	5.1248865	-240451.22	47873.52	537201.2	4.4065795e6
H	1.0	3.9358935	22.20208	6.112277	437571.1	326657.4	161037.73	4.430621e6
H	1.0	23.286234	14.643116	3.8073492	72621.18	-414653.28	-346771.47	4.4166815e6
H	1.0	4.8208194	20.746986	22.590374	-153835.39	-326301.84	-73720.35	4.4061685e6
He	1.0	6.12115	16.043598	16.602905	51105.95	-15582.603	-19701.676	4.385006e6
He	1.0	6.9670715	18.436964	18.999283	-118025.234	309633.22	84179.164	4.351623e6
H	1.0	12.701985	22.742994	24.069645	-45846.51	-409406.34	217654.98	4.414365e6
H	1.0	1.2337787	21.696558	20.1303	-81778.53	-283562.72	-328405.53	4.426004e6
He	1.0	20.375193	17.87251	0.46235	5087.4043	-332875.12	296794.12	4.428477e6
He	1.0	6.2379084	7.5260415	16.86242	-22715.91	-41774.22	266032.5	4.368255e6
H	1.0	16.716	9.175997	22.162754	317367.84	337158.12	257445.05	4.418408e6
He	1.0	16.16725	17.019714	17.188887	-35236.105	-302740.44	205107.89	4.402427e6
H	1.0	11.994618	13.962895	14.493155	-216644.77	-322075.47	381332.16	4.357901e6
H	1.0	20.799416	15.755006	5.4976897	286875.47	-101778.09	-57689.55	4.3972905e6
H	1.0	7.878558	22.025318	2.2438936	-35647.035	119515.77	-448906.72	4.334646e6
He	1.0	9.531236	13.424506	0.5626795	-197365.1	-537069.8	398504.38	4.418357e6
H	1.0	6.84959	3.653404	22.433878	111679.45	191284.55	222705.42	4.32412e6
He	1.0	6.414907	10.695929	13.516358	-485361.62	129881.164	-722450.2	4.3887075e6
H	1.0	6.311561	12.0773945	11.722897	-217429.92	941493.2	-56201.92	4.383102e6
He	1.0	19.919567	20.4822	18.94655	2044.8535	386022.03	-200598.27	4.327528e6
He	1.0	13.335943	1.25628	18.934288	260935.02	-646359.5	-413431.28	4.3583405e6
He	1.0	22.93269	10.687203	10.505977	290374.47	-175768.94	-572857.56	4.339895e6
H	1.0	20.891884	20.255114	4.8890224	-224756.08	-471401.56	-123304.02	4.385759e6
He	1.0	2.558196	11.561858	22.595518	482081.44	-159828.72	343161.7	4.335126e6
H	1.0	9.321048	11.628508	21.431755	-175666.69	87427.79	-61763.227	4.4338115e6
He	1.0	18.191788	5.199973	16.82498	322286.6	-65733.68	236043.06	4.3413815e6
He	1.0	2.4299233	14.162283	7.7552204	319632.88	283047.1	344841.4	4.38829e6
H	1.0	3.135601	5.0868816	4.9713287	241982.8	-10981.964	14978.913	4.361364e6
H	1.0	2.0099337	13.761478	13.506143	113687.4	-73565.97	-453242.5	4.3803375e6
He	1.0	7.4298263	1.0603365	1.0789198	647282.9	-38658.223	43912.83	4.3633605e6
He	1.0	15.91985	1.8461355	21.289698	-61057.86	-421217.1	-30338.643	4.355365e6
He	1.0	11.652912	2.5567362	16.356503	-274731.84	-163915.67	233244.47	4.370783e6
He	1.0	18.778858	4.7882557	9.191792	-70779.46	100316.414	-218143.33	4.374469e6
He	1.0	17.918344	20.989693	8.029294	-234043.81	-451656.7	-90522.84	4.3076615e6
H	1.0	1.0684665	22.064735	5.694123	323850.47	195747.77	161741.17	4.400221e6
H	1.0	18.486155	7.161257	21.499146	-301131.97	512937.7	211055.83	4.4115035e6
He	1.0	16.266392	15.03794	1.8815275	280982.97	74829.17	-11831.679	4.3521705e6
He	1.0	17.91179	9.6244335	4.0017977	-335136.72	112311.22	264774.25	4.3430545e6
H	1.0	6.080718	0.18858936	2.544143	117101.055	72465.08	-376542.25	4.4195045e6
H	1.0	13.034336	16.542048	22.581594	-149256.34	670831.56	-574899.9	4.3560465e6
He	1.0	10.979219	21.416468	14.759837	160601.14	84339.76	117898.49	4.375225e6
H	1.0	11.900227	17.927162	10.743785	279088.06	-277279.97	401892.72	4.393012e6
He	1.0	5.067637	6.2425404	19.310453	-60203.113	382681.94	122967.36	4.4207665e6
He	1.0	7.2097297	21.28192	6.519365	-42958.867	-210706.78	117386.12	4.367653e6
He	1.0	22.375374	8.27783	20.673779	-396603.94	4413.234	87206.63	4.3965015e6
He	1.0	1.4771823	6.687754	2.41296	348527.56	745677.6	-472267.66	4.38753e6
H	1.0	9.721607	7.18493	4.024716	-519647.47	243633.36	-138070.92	4.4483105e6
H	1.0	0.21437325	18.150072	2.4527533	-561857.25	-27717.398	360126.25	4.358704e6
H	1.0	21.31278	13.322086	13.844716	57250.773	-41821.383	340431.9	4.3917215e6
H	1.0	4.186196	20.998407	20.322794	111802.34	276784.03	25743.727	4.408363e6
He	1.0	6.168966	21.386763	15.914843	210522.06	127186.36	-113872.99	4.3982025e6
H	1.0	11.836535	3.4836583	21.498322	-607861.06	98195.54	-253782.5	4.417389e6
He	1.0	4.834782	9.516484	7.8252416	389892.62	-95977.88	-458680.38	4.3817245e6
He	1.0	21.19439	11.670094	9.316708	-319265.22	-124785.44	-146155.97	4.341149e6
H	1.0	23.197561	3.3471477	14.470325	-323920.2	-605616.06	-33108.766	4.3616845e6
He	1.0	3.037826	0.35059744	22.634905	11244.4	-150443.36	-119125.086	4.4015055e6
He	1.0	15.809721	17.67925	1.7196344	215087.05	129566.664	302844.16	4.3815375e6
H	1.0	1.43734	7.172089	21.881681	298198.2	384277.84	207704.94	4.3673795e6
He	1.0	18.489382	18.779041	8.622117	67598.15	570193.8	81060.48	4.362773e6
H	1.0	9.961281	2.3483143	4.309391	118426.65	-195793.06	-65852.07	4.419643e6
H	1.0	22.13639	17.555696	23.58004	83789.664	-227239.12	268543.6	4.4030315e6
He	1.0	19.117329	15.450098	13.947427	170209.8	161436.28	-98864.42	4.4038545e6
He	1.0	4.7604647	20.010633	4.0763497	-70021.1	-431773.22	638661.25	4.4277025e6
He	1.0	17.449442	0.081007935	14.962966	-68072.17	163075.67	-196708.62	4.391909e6
H	1.0	12.47644	3.0981548	12.268564	-342231.7	300699.25	-207942.66	4.368214e6
He	1.0	0.85890573	8.568686	13.532191	-114046.484	375359.97	359108.0	4.3670165e6
H	1.0	19.298357	20.25282	0.057247885	-84698.67	115680.22	-63737.594	4.332401e6
He	1.0	16.545116	15.64726	8.378755	54348.855	22729.443	475205.5	4.379471e6
H	1.0	12.410638	18.534182	6.2296877	301147.38	-514156.03	386721.06	4.404447e6
He	1.0	3.2689972	9.874783	21.187956	-336797.2	-539790.56	462073.6	4.379818e6
H	1.0	4.4794636	23.619408	19.481577	-400936.56	313811.22	-10289.592	4.3980555e6
H	1.0	19.05069	13.028418	12.468339	425098.2	96146.984	-381001.9	4.3759745e6
H	1.0	3.1061807	0.20092358	13.722503	75667.08	-402150.75	-478546.6	4.3600285e6
He	1.0	1.5691847	5.691177	17.007969	-217465.95	-117226.195	59349.516	4.377758e6
H	1.0	19.704632	10.750636	22.47498	-390815.03	-59865.453	-614278.3	4.413421e6
H	1.0	11.287995	8.9192	2.5629795	244561.6	-61217.156	12816.956	4.345977e6
He	1.0	2.067716	22.140368	11.277239	355066.3	-359501.88	-29997.176	4.3865485e6
H	1.0	0.8543776	18.608057	18.955229	167698.27	-58164.492	-314832.47	4.3440795e6
H	1.0	23.312778	17.688461	21.167692	4529.7603	-192059.33	-370803.28	4.3437685e6
He	1.0	14.244606	9.057633	12.722735	407740.28	439821.03	-91811.57	4.35162e6
He	1.0	9.486878	23.568632	18.189598	-126217.66	216205.11	28602.88	4.3909695e6
H	1.0	9.604831	5.297798	5.678515	-111576.6	-562247.2	482611.75	4.330951e6
H	1.0	12.407453	11.99264	9.406723	-89037.07	671774.0	541737.9	4.3806925e6
H	1.0	12.55105	7.4612484	16.895443	87365.53	370345.38	-136572.56	4.3637315e6
H	1.0	9.855118	8.043606	1.4535606	293841.44	130203.67	487343.66	4.360292e6
He	1.0	0.22365604	4.442881	19.094547	290943.53	412191.62	382225.8	4.412918e6
H	1.0	12.430295	11.725176	17.561024	538667.06	290076.56	-47419.934	4.390493e6
H	1.0	11.226742	21.218699	6.9745326	-646316.9	-206159.25	103687.87	4.3562405e6
H	1.0	11.974477	3.7341013	0.38352242	392578.16	-764504.56	36912.473	4.4112785e6
H	1.0	14.556582	0.6131916	20.264164	57823.1	228628.78	129295.7	4.422573e6
H	1.0	18.639412	6.4939127	11.250445	-139592.66	-71664.37	-125226.29	4.3397845e6
H	1.0	17.283707	18.216736	7.0852313	198473.36	-106356.68	98587.95	4.382123e6
He	1.0	18.599104	2.4341247	0.67829376	424683.22	62658.492	528645.2	4.3405515e6
He	1.0	19.810362	9.842416	10.524396	-52284.39	160851.12	162683.3	4.353574e6
He	1.0	11.893935	7.3113427	18.752348	670744.4	-310623.34	-922.74634	4.3631375e6
H	1.0	15.592564	11.378572	22.863298	-514049.66	-302745.66	-526222.56	4.326937e6
He	1.0	20.459105	10.536634	17.412863	-132867.9	-563619.6	-159417.88	4.3931265e6
H	1.0	2.4035788	2.7363317	10.823625	513539.97	236878.33	-121571.66	4.351235e6
He	1.0	19.677794	23.976522	12.716771	161084.73	-194406.06	-415396.97	4.3719885e6
H	1.0	5.692456	19.901524	12.191141	-382334.8	-655532.7	-196775.84	4.4018195e6
He	1.0	6.012982	8.414026	5.287752	61913.543	-177280.92	402319.28	4.407433e6
H	1.0	20.16586	23.099527	1.5214907	363496.12	125644.74	105561.93	4.401218e6
H	1.0	15.348625	3.8833947	20.164118	225174.23	-158055.81	80970.65	4.369068e6
H	1.0	9.067292	7.2625413	13.527688	-192171.9	-319833.56	-86512.84	4.339885e6
He	1.0	11.052756	5.2203155	1.977088	705114.3	179786.16	-349181.97	4.412116e6
H	1.0	15.217867	4.9630985	1.7214377	-837892.44	-1748.2188	-505797.38	4.359936e6
He	1.0	21.966036	1.4430404	10.739146	-117580.86	221820.36	-341755.12	4.377259e6
He	1.0	18.054218	0.1542044	0.7691176	-59547.88	240265.06	343651.56	4.350223e6
H	1.0	16.496004	5.6961865	0.44600165	-267130.72	-165055.47	358730.94	4.3502445e6
He	1.0	1.8675444	8.272542	4.0346203	-508455.06	236745.7	-49785.137	4.378215e6
He	1.0	23.981089	1.5721085	4.1924787	-407183.4	-101013.83	-847682.44	4.4044515e6
He	1.0	8.743776	10.647156	13.181012	543486.6	346914.84	76793.516	4.3615145e6
He	1.0	17.813461	8.790613	10.392404	28051.307	-233775.36	323558.1	4.3294335e6
He	1.0	15.513215	1.888591	9.178774	375061.2	55456.406	-560302.0	4.376315e6
He	1.0	16.90977	21.133518	3.917256	77224.6	-206411.06	-124617.99	4.388653e6
He	1.0	16.178724	3.7431624	13.034266	-604081.6	-27341.93	-40065.586	4.3957635e6
He	1.0	7.145049	9.014861	10.424916	364156.97	35618.43	13357.075	4.3960425e6
He	1.0	9.703959	19.149103	20.631998	-190130.17	275729.9	-19996.037	4.372286e6
H	1.0	16.53279	14.256775	21.238476	-59447.29	389188.94	35608.742	4.3777835e6
He	1.0	11.572158	22.322962	5.1188264	-144651.42	24789.307	41273.027	4.3263365e6
He	1.0	2.3904753	6.1100245	13.004577	197387.62	-489377.97	97944.91	4.425659e6
H	1.0	7.59962	13.900369	2.6714096	-97464.65	-177359.84	35386.547	4.3494245e6
He	1.0	10.477252	1.4674727	17.7997	-525335.7	149502.28	-122578.164	4.3947225e6
H	1.0	11.01685	0.3205621	23.089277	4593.929	-86927.87	424707.8	4.383783e6
He	1.0	20.563576	14.974519	18.906464	426373.44	-134814.12	348893.8	4.405245e6
He	1.0	6.572358	16.622076	2.5245597	162566.73	354379.03	419529.1	4.4090155e6
H	1.0	13.129559	10.2939	10.483017	-142538.88	-7381.6714	589318.8	4.3467575e6
He	1.0	6.116162	17.01579	6.3406763	-95807.28	-13596.347	121112.55	4.3556555e6
H	1.0	14.720564	15.20624	7.6734505	-362992.2	-422332.34	-108757.71	4.3449725e6
H	1.0	15.678204	20.54537	0.2708337	262159.25	587154.7	92788.9	4.3821395e6
H	1.0	5.261496	1.9537019	7.9579544	-429937.78	471850.16	38386.316	4.3894015e6
He	1.0	19.497414	21.301155	15.62917	-143480.0	261428.28	-55583.65	4.410387e6
H	1.0	11.286438	21.183918	19.92954	-155017.62	123976.47	238505.33	4.3473215e6
H	1.0	2.057022	3.1477873	18.761889	182542.89	360865.84	-300863.1	4.328231e6
H	1.0	21.404245	9.2035265	15.948555	-19286.584	-65982.125	-344162.2	4.448146e6
He	1.0	7.6154885	11.10802	20.656294	-129181.5	7978.1934	170948.86	4.3701345e6
H	1.0	3.8906105	8.671562	4.8641024	420121.9	163890.0	-284064.56	4.3592675e6
H	1.0	11.0604105	13.181357	10.173746	-3732.004	110504.305	-32430.574	4.3958335e6
He	1.0	4.1371183	7.6900826	20.417831	-361353.72	610906.1	-329129.0	4.372666e6
He	1.0	21.276539	0.6699941	18.85572	602839.5	-241495.4	5895.457	4.3952565e6
He	1.0	11.023272	19.552664	5.387409	334524.88	-529742.8	26403.135	4.406632e6
H	1.0	5.4935527	21.093544	8.592671	-274615.78	-62495.402	371548.06	4.4017135e6
H	1.0	11.359555	1.204167	9.5814705	198168.44	-12630.5205	-163059.38	4.3758785e6
He	1.0	14.340088	7.8753853	18.325726	-257082.36	11152.252	-780139.0	4.404061e6
He	1.0	13.656168	17.143208	3.9761271	-156101.36	-423753.75	-333121.16	4.4244085e6
H	1.0	21.626934	17.526634	14.821626	-140166.81	-90382.945	-107215.81	4.393524e6
He	1.0	20.253866	21.978703	9.295888	651953.75	-70130.3	237793.3	4.3278605e6
H	1.0	17.929966	13.569355	8.832203	-110170.32	-76244.445	22102.332	4.355896e6
H	1.0	12.925294	10.255154	14.06139	-33353.527	122065.0	-502550.38	4.375062e6
H	1.0	19.104015	5.2884164	14.834818	169733.12	170324.56	401481.62	4.4100755e6
He	1.0	2.4905825	3.6068044	16.93855	-178904.77	-424105.2	76247.49	4.378792e6
H	1.0	15.248636	0.35554916	4.992181	-607148.06	205221.39	-198085.45	4.3503365e6
H	1.0	3.5104566	13.934653	11.938889	-556891.6	-116374.89	436.53427	4.4343625e6
He	1.0	3.6061916	20.498201	13.59378	487216.25	-245402.94	171453.55	4.3880355e6
He	1.0	16.980429	11.9782715	12.598264	-261648.22	-578793.94	-174435.28	4.350336e6
H	1.0	21.79031	16.365877	7.5428367	20171.14	-228454.78	131191.16	4.3827665e6
He	1.0	15.709297	8.096594	6.3434744	547179.0	-84186.65	467761.2	4.39896e6
He	1.0	14.162907	11.341947	0.33227655	83070.41	412316.25	-185815.77	4.4275495e6
He	1.0	21.445234	5.0712914	16.090336	78998.69	86794.44	179115.08	4.391128e6
He	1.0	10.594367	23.006786	21.725458	200481.89	279086.8	286624.62	4.4599775e6
He	1.0	14.825191	17.720596	20.854244	91030.28	794859.44	-58510.844	4.375196e6
H	1.0	8.850631	16.749578	23.712938	-223930.03	-52239.043	-162691.12	4.388893e6
H	1.0	12.527722	13.603285	23.464512	56484.445	-16647.703	-120436.33	4.3688865e6
He	1.0	13.377853	6.635844	15.071293	409315.62	-311612.12	-186308.28	4.3420455e6
He	1.0	18.110107	23.292768	21.646229	-4501.5874	51399.656	334375.7	4.357127e6
He	1.0	21.57878	3.6612496	8.640915	-92569.45	264191.12	-87014.02	4.438874e6
H	1.0	14.211006	4.522573	22.517677	3938.4395	91482.086	71521.63	4.364207e6
He	1.0	10.933858	15.964616	17.095282	-374283.1	-218477.08	-35444.227	4.311656e6
He	1.0	0.49209484	12.407332	0.60822505	-381217.38	498572.2	73052.98	4.411204e6
H	1.0	5.1172943	13.567777	10.942026	28025.553	269574.12	288382.66	4.394586e6
H	1.0	18.607752	13.534314	5.2975836	317109.53	-8574.523	294125.56	4.4251595e6
H	1.0	6.3176517	5.651692	17.412529	-51879.094	-413622.28	19823.246	4.3472785e6
He	1.0	10.091743	23.633118	9.80083	-78338.93	-30856.197	-74517.766	4.443099e6
He	1.0	23.107002	6.044231	1.2767363	-613153.2	-661468.9	-177131.48	4.4973645e6
H	1.0	15.05789	4.36057	18.070847	-450811.16	-38660.582	-468071.2	4.403906e6
He	1.0	18.489178	11.47098	18.20492	228975.81	-563592.94	-28645.861	4.3576735e6
H	1.0	9.635851	0.76202595	2.0733843	-172318.89	-77091.305	173366.1	4.4233955e6
He	1.0	7.0988994	2.7708542	18.082973	-114740.7	288696.53	-175098.06	4.4110035e6
He	1.0	12.64698	9.445217	4.2953415	382041.22	-158630.83	-78744.45	4.378629e6
He	1.0	20.938904	15.163519	14.726358	-84143.21	-256860.45	-109466.79	4.410684e6
H	1.0	8.035062	11.940402	16.84415	-276352.72	-32098.828	-315088.78	4.3574245e6
H	1.0	10.751926	5.4558597	8.951367	21678.463	211838.61	-40643.875	4.33426e6
H	1.0	10.93324	11.740216	5.359554	313061.8	23684.111	285903.97	4.3752995e6
He	1.0	18.688562	1.5767392	15.426384	121906.6	-530251.56	-275840.3	4.356331e6
H	1.0	2.8293128	13.605935	18.95932	-124068.98	-314224.28	255056.69	4.3914055e6
H	1.0	12.601645	20.605045	17.424976	-125706.27	-371288.97	300915.06	4.3991185e6
He	1.0	0.4624369	18.4521	8.557423	-99018.76	220416.47	-7849.61	4.3759275e6
H	1.0	10.494989	19.933813	9.824633	-147251.14	511520.03	-413547.8	4.3950965e6
He	1.0	10.891321	12.325647	2.7293813	199251.7	77032.73	423166.9	4.3523055e6
He	1.0	11.163388	17.60683	20.375675	-280161.78	409007.7	-32072.344	4.427842e6
He	1.0	10.024419	9.571336	23.888996	338633.78	631612.5	503705.12	4.3521845e6
He	1.0	4.247389	3.7179844	11.789668	199002.31	-152461.22	-26687.531	4.372345e6
H	1.0	5.132574	3.034076	17.202927	43907.273	134058.39	-356443.22	4.374949e6
He	1.0	8.539948	23.017187	8.551989	-304183.38	-136488.02	282123.3	4.4210895e6
He	1.0	12.898913	6.347121	1.3264006	-169538.05	-415314.9	244174.97	4.3708805e6
He	1.0	9.683077	4.7691817	3.594824	352656.53	3571.134	-340990.03	4.3338315e6
H	1.0	10.54432	17.081633	22.222466	290983.3	241507.6	197614.86	4.4631165e6
He	1.0	17.580788	0.38947502	7.971387	236963.84	17151.42	-289824.38	4.3948015e6
H	1.0	4.0925183	19.512758	5.894374	-120742.2	228388.75	213772.48	4.3965885e6
H	1.0	19.81026	5.698842	2.685469	285097.16	-142784.61	691316.44	4.333322e6
H	1.0	12.92903	13.137516	1.3324804	354784.88	106687.664	270068.72	4.3935525e6
He	1.0	6.059458	8.510321	3.1044796	30686.863	-478236.47	354724.75	4.3893615e6
H	1.0	14.869508	10.041324	3.3940024	95596.766	-864275.25	-213484.58	4.383438e6
H	1.0	9.406809	22.279362	20.41744	-130885.59	463029.9	178856.92	4.321386e6
He	1.0	6.169352	12.559695	20.46045	142168.44	-319261.4	370904.53	4.3399985e6
H	1.0	16.36759	0.48448452	10.618739	135327.6	-180855.23	-444784.75	4.416651e6
H	1.0	20.192974	19.776201	2.075686	-413210.34	-312087.62	-62763.14	4.3590105e6
H	1.0	18.905575	22.715849	23.582024	-256527.58	204532.33	-278798.8	4.4278905e6
He	1.0	15.987337	5.2777615	22.415455	395547.72	26136.771	-74447.36	4.3990055e6
He	1.0	1.4513137	0.28575927	18.2687	-62525.4	498763.3	-111151.93	4.3680185e6
H	1.0	17.147684	0.06546676	17.478645	-18603.934	-67916.77	209937.16	4.393276e6
H	1.0	3.8771522	10.03454	3.1281812	-19999.402	152362.97	716390.1	4.3868045e6
H	1.0	17.239248	13.282215	3.3748293	393823.44	462697.47	120969.875	4.3936325e6
H	1.0	8.720792	4.450275	23.36354	160555.83	-76330.32	24249.488	4.340928e6
He	1.0	18.535511	13.070523	19.321533	218279.47	656224.75	-572063.8	4.4017265e6
H	1.0	14.742638	20.283867	21.484266	38364.12	284428.0	-20857.43	4.370921e6
H	1.0	17.957424	7.044492	9.128565	64037.11	67886.78	371673.94	4.406044e6
He	1.0	20.15403	3.745026	5.0438704	137021.47	73399.39	-716481.6	4.3415275e6
He	1.0	11.576609	1.2118028	5.3174667	287434.44	-211441.22	465539.3	4.4007405e6
H	1.0	1.7218485	14.2789	2.345246	-237240.72	-161776.3	-18343.13	4.3622005e6
H	1.0	3.9389758	12.788587	20.711668	153308.47	83574.64	-246373.3	4.433207e6
H	1.0	18.011028	5.015123	4.417606	-301648.88	107394.03	36338.754	4.328225e6
He	1.0	10.641441	1.6145496	19.769047	-452806.28	-52202.008	-80058.83	4.3828335e6
He	1.0	22.262857	3.098539	23.758419	-189790.0	349619.84	189042.78	4.3962125e6
H	1.0	14.249475	6.065789	10.932611	186953.58	482144.66	-431174.72	4.398068e6
H	1.0	16.725002	3.1191986	5.131941	-21258.05	-161077.72	79648.234	4.4051065e6
He	1.0	19.434637	6.639828	17.840658	381739.12	89137.055	-100037.555	4.412805e6
He	1.0	15.391659	16.328098	4.849095	240024.45	494015.7	380896.34	4.4391085e6
He	1.0	23.592583	22.787043	19.804817	-103705.43	33626.53	39239.22	4.4464225e6
H	1.0	17.038582	1.7649132	2.5382884	-317558.38	131302.11	-227287.98	4.360973e6
H	1.0	9.42693	3.8648088	9.399349	-247044.38	264256.06	-20488.81	4.325777e6
He	1.0	14.563891	11.975147	16.290934	237732.16	86310.67	-100824.55	4.416051e6
He	1.0	15.134194	12.715569	1.9944044	-405441.6	-249049.27	7958.6353	4.397868e6
He	1.0	2.9638593	2.3294938	3.9899778	-333356.38	-332098.94	-145578.58	4.375624e6
He	1.0	7.8765993	2.120324	23.12168	-495821.12	62627.82	473043.2	4.3845395e6
He	1.0	1.5708023	15.279376	15.096682	-229908.9	-48829.062	209581.48	4.343231e6
He	1.0	12.068722	8.379706	14.3930855	119533.51	-202422.94	-181691.42	4.4083945e6
H	1.0	14.978873	16.372034	13.542948	-186876.92	-420091.97	-336599.9	4.3916e6
H	1.0	15.266344	8.592015	0.16819097	-101415.35	33556.527	142707.14	4.4039485e6
H	1.0	6.4051094	18.618202	8.478958	-466712.25	746069.3	-935606.94	4.355308e6
He	1.0	1.9189116	15.719004	23.25339	37865.41	246021.6	273227.72	4.358593e6
He	1.0	2.8497481	4.030861	14.266182	-93612.305	-94491.195	-199533.12	4.3638155e6
He	1.0	20.342693	2.462595	22.653332	34577.863	-208976.64	67774.11	4.369271e6
He	1.0	22.05988	23.20151	8.972772	502089.06	-194202.1	-445032.0	4.406765e6
H	1.0	22.819094	12.072858	8.085571	209507.27	196655.94	-408257.2	4.360746e6
He	1.0	13.169878	20.93368	12.617558	117713.76	-45408.195	-108288.23	4.385269e6
He	1.0	8.985881	19.391161	8.422037	-270197.7	506372.1	-378820.38	4.3204845e6
He	1.0	16.927092	14.053982	12.256346	-313411.34	133435.48	507117.72	4.4137225e6
He	1.0	9.05546	21.085852	7.4507637	-117653.7	-223961.72	175886.75	4.4068095e6
He	1.0	20.958649	3.1724403	1.2690316	-323051.0	-103631.43	65026.805	4.318416e6
H	1.0	2.5486486	19.763575	15.190893	-305699.72	46776.438	-129434.13	4.331474e6
H	1.0	17.339165	2.1442792	18.979816	-186750.08	-135167.88	251451.47	4.382315e6
H	1.0	11.175196	12.140515	13.632293	6323.0835	-704913.7	-32911.574	4.3827155e6
H	1.0	19.238548	1.4088318	21.280857	-443438.12	-43253.23	267826.03	4.4140205e6
He	1.0	16.077875	6.266617	15.752231	581028.2	229418.8	255246.88	4.3424165e6
He	1.0	22.796228	21.03714	18.058584	-125572.875	-557096.6	411582.53	4.3900025e6
H	1.0	3.6216424	14.624836	17.267656	40584.59	-70904.586	-211611.61	4.400294e6
H	1.0	10.2812605	17.646597	15.072608	-437634.97	120137.5	254813.12	4.3898095e6
He	1.0	7.870394	9.121058	17.32201	345863.94	-99377.09	-213834.25	4.3932865e6
H	1.0	0.082049854	20.981344	23.726236	-216266.19	-11013.816	-897156.94	4.3615725e6
He	1.0	10.714519	7.852933	10.392625	194096.92	691678.7	-167243.22	4.3806675e6
H	1.0	14.696209	13.865219	6.242463	-150853.39	485535.88	-429716.2	4.382251e6
H	1.0	21.208023	5.268184	21.182438	-246686.44	567573.44	-282162.12	4.3823925e6
H	1.0	0.51508826	5.3106527	13.467691	-123182.805	-208467.78	531839.3	4.377036e6
He	1.0	13.905788	15.224821	15.909199	356758.3	-462303.66	142088.25	4.3797675e6
H	1.0	9.783768	4.4063187	18.909672	-499319.44	-322437.28	-86739.33	4.365619e6
He	1.0	2.822667	20.524027	1.9032716	410189.78	-133826.38	-82502.82	4.3859135e6
H	1.0	22.091578	18.838282	6.266196	57728.574	14376.32	317170.16	4.3954015e6
He	1.0	20.527328	6.1501384	6.1919622	122304.46	-500878.34	-686012.7	4.378236e6
He	1.0	19.320408	17.315771	6.0867214	-356541.88	415161.03	-86210.625	4.354496e6
He	1.0	22.455418	1.3967464	14.922892	237833.83	336663.78	181976.9	4.412782e6
H	1.0	6.7488484	13.23498	18.411505	-53644.35	127920.31	241821.52	4.423091e6
H	1.0	4.6575327	7.18232	11.711133	233753.98	24899.453	-3539.6416	4.4048355e6
He	1.0	16.427528	12.633196	7.6289706	363557.9	25120.291	466746.5	4.387094e6
H	1.0	15.71313	14.012897	14.246256	306960.16	-279918.8	289852.47	4.3230705e6
H	1.0	5.1760063	1.7889763	22.932892	255579.25	148631.34	-158428.95	4.322418e6
H	1.0	2.3246236	7.875819	15.881692	-659403.75	-436534.9	395169.94	4.377428e6
He	1.0	6.9223175	1.0888622	10.740142	-420933.56	-152837.27	-360229.84	4.364197e6
H	1.0	12.199113	11.73208	11.70073	469895.56	-241423.86	522997.56	4.351921e6
H	1.0	0.42939177	12.871581	2.914988	-674266.1	-115941.68	475300.44	4.3420085e6
H	1.0	13.197302	19.172686	9.884592	-717724.3	397096.97	-23984.031	4.394138e6
H	1.0	5.746261	14.400021	3.7767901	-203153.23	-396762.34	313880.5	4.3583235e6
H	1.0	7.4950213	2.8625512	10.32006	-688358.1	366592.9	54602.074	4.3765465e6
H	1.0	9.390287	11.203519	11.152995	-286509.6	-182954.6	408677.16	4.359485e6
He	1.0	14.12799	10.065631	18.028585	545609.1	-216237.69	33731.445	4.3959335e6
H	1.0	2.205989	19.976633	20.16894	161682.53	-621885.06	-85698.63	4.3283205e6
H	1.0	1.0919642	24.045107	23.475178	-25411.25	-146104.62	225150.61	4.3227745e6
H	1.0	22.210386	21.615501	11.188408	-213439.62	260299.67	-520061.88	4.409169e6
H	1.0	15.369305	11.616801	5.738335	86693.125	-492835.8	217742.0	4.42422e6
H	1.0	5.965541	10.360383	18.59963	-88413.36	906.11053	-494177.03	4.404237e6
H	1.0	3.501105	5.3556614	9.39768	-361498.16	676186.6	554240.94	4.368589e6
He	1.0	5.7534914	1.4959779	12.231861	-378853.28	112765.984	-104623.2	4.4059295e6
H	1.0	13.556245	3.4410315	6.1357284	-80597.56	-54644.176	-129766.49	4.406258e6
He	1.0	14.932946	10.937433	9.046425	-466671.62	-131150.61	-138023.88	4.3900295e6
H	1.0	11.318534	5.939276	17.033558	108887.55	726758.8	-235153.44	4.3864845e6
He	1.0	4.0269275	15.70421	23.559885	103610.92	366956.5	226644.14	4.403139e6
He	1.0	14.170555	15.956231	1.629971	-33745.418	-485539.9	594385.4	4.3473115e6
H	1.0	10.1544285	8.833581	12.178389	-105161.07	-95136.94	176105.5	4.4219185e6
He	1.0	22.312445	8.050021	18.701273	394892.22	-94193.734	661672.1	4.404336e6
He	1.0	18.357359	3.5260532	15.352214	75933.516	-61452.75	-555163.25	4.3862445e6
H	1.0	8.494431	20.284065	16.175333	254527.5	50392.098	-279398.2	4.372472e6
H	1.0	2.8141632	20.070835	10.683088	251828.61	270332.28	528987.56	4.396433e6
He	1.0	19.14745	12.184562	9.962625	222760.9	9585.5625	496178.7	4.3943385e6
H	1.0	15.038093	8.006242	20.169233	-164637.02	-82977.63	468992.72	4.3815105e6
He	1.0	13.560239	1.1645894	4.4560776	43371.543	-534181.4	-525638.4	4.340474e6
He	1.0	14.064362	5.344818	7.216975	194452.55	204055.86	83655.44	4.38055e6
H	1.0	10.970831	10.962937	15.5561695	450058.8	63655.715	202072.02	4.385782e6
He	1.0	19.352968	13.885644	17.428963	-82087.625	-563953.0	-450719.94	4.302596e6
H	1.0	13.629914	12.14535	22.541233	163539.75	-170292.1	436501.3	4.35559e6
He	1.0	3.9105346	12.346959	4.105782	-30568.82	-202968.02	20687.695	4.352975e6
He	1.0	0.21569282	17.361938	17.337866	368746.06	60463.76	490064.6	4.337867e6
H	1.0	2.0100448	18.300041	12.644499	-180026.22	11218.965	367154.06	4.4594045e6
He	1.0	9.595393	22.624258	13.003901	-185701.17	2807.0818	239665.2	4.4250515e6
He	1.0	23.588425	19.674465	16.566244	674142.5	6523.604	200834.86	4.3832315e6
H	1.0	15.292372	19.204723	5.5109935	-150636.75	-104255.5	-661661.44	4.40945e6
He	1.0	10.967921	4.9541454	13.698985	-562856.7	156469.1	142763.28	4.3797025e6
He	1.0	22.53595	11.594027	0.27520177	206455.97	-58088.297	-86447.14	4.3623515e6
H	1.0	22.082317	18.613071	18.821806	-210679.77	471848.4	23737.219	4.362886e6
He	1.0	10.155119	18.557589	23.814987	-377760.72	86301.83	-516992.06	4.3901875e6
He	1.0	23.684994	20.595428	2.2401333	140581.34	-338808.1	349573.4	4.354118e6
H	1.0	2.8094587	0.78382355	6.9626083	-372042.72	363609.1	196762.14	4.3549225e6
H	1.0	10.132555	23.67385	4.020525	587448.7	-45338.926	-259797.19	4.3856795e6
H	1.0	20.496025	20.303175	17.047274	-221093.36	-106719.39	350223.44	4.344509e6
He	1.0	6.496184	9.474562	20.353344	98015.32	510499.44	-425619.25	4.4307675e6
H	1.0	2.4064567	6.5615263	19.638609	14494.726	71571.25	-14549.884	4.362085e6
He	1.0	17.138115	18.598927	18.468012	436018.38	-105077.58	-139850.55	4.401868e6
He	1.0	1.5479858	11.703315	10.11833	62688.83	-34522.957	885972.4	4.3522965e6
He	1.0	20.925722	22.625328	19.484835	164282.53	-79800.8	425358.66	4.3283055e6
He	1.0	12.859176	12.145833	4.0461335	200335.02	163042.4	321089.22	4.3338855e6
H	1.0	19.680311	21.440268	6.8449163	651998.5	-276687.34	-75614.055	4.3794845e6
He	1.0	6.220665	19.555836	5.822644	-380666.25	73424.164	-803172.4	4.3574e6
He	1.0	3.234638	11.031509	6.402267	-347603.44	-424328.72	-136623.28	4.374377e6
H	1.0	5.0721517	2.8173923	1.4031287	-526126.8	-138923.61	-58371.21	4.4099095e6
He	1.0	3.6568272	15.65513	13.484755	-124653.71	-312912.06	-521518.0	4.4655805e6
He	1.0	23.398117	20.429958	20.810898	-165422.05	480265.9	-45162.285	4.3480205e6
H	1.0	9.409975	2.6504962	0.16672547	-225085.83	-208212.67	-85080.23	4.3610895e6
H	1.0	4.262034	18.951117	18.246893	516116.75	-91448.71	88437.125	4.379071e6
He	1.0	22.017355	13.450455	12.073373	-516777.66	-196047.61	-379950.03	4.3838695e6
H	1.0	11.975482	19.796438	1.3236693	-361778.38	563337.25	-417847.2	4.3743625e6
He	1.0	18.194914	11.695844	7.5849485	-243482.69	545664.44	-21820.918	4.361676e6
H	1.0	24.077053	0.2688032	1.6775366	218780.12	676478.56	173562.06	4.5141585e6
H	1.0	0.7366073	16.068838	18.94084	160400.03	280826.8	276469.28	4.4089345e6
H	1.0	23.53621	5.7418833	21.196753	166682.7	169764.03	-137848.19	4.4155325e6
He	1.0	21.109035	17.365784	20.765886	618746.8	-212881.55	388136.56	4.406261e6
H	1.0	9.753755	13.846872	21.139975	-99115.86	-62611.812	57277.906	4.438837e6
H	1.0	6.5557075	19.76645	2.558772	403957.84	122312.8	516099.28	4.390581e6
He	1.0	13.08054	15.826421	19.592224	26882.305	-776580.4	574828.4	4.3970745e6
He	1.0	1.5089759	9.146233	20.712215	-42513.266	-308174.66	88172.65	4.408877e6
He	1.0	14.671379	7.4824715	1.8583877	-383498.0	-501372.06	-564267.5	4.370994e6
He	1.0	2.437793	16.543068	16.361525	-20823.018	296002.25	-348211.25	4.411733e6
H	1.0	4.621313	17.245766	1.4307052	531302.2	65172.766	-121982.98	4.3438395e6
He	1.0	23.38026	23.058512	23.739601	-162107.58	-237113.4	-326066.12	4.444191e6
H	1.0	2.6150148	1.0177522	15.761291	-275447.0	-429788.9	105285.32	4.3508325e6
H	1.0	22.790419	11.156153	4.440672	424453.78	-34478.34	92940.22	4.3702645e6
He	1.0	20.034145	8.041847	22.748138	81024.305	-225634.72	-160093.9	4.3466e6
He	1.0	6.1229057	13.937026	22.841417	200749.64	-221329.02	353240.0	4.384526e6
H	1.0	0.60040843	16.471893	7.9566693	203625.19	535078.6	180859.86	4.394117e6
He	1.0	16.023685	9.170714	9.859588	79681.67	37870.08	63796.28	4.3919865e6
He	1.0	14.807683	3.6537054	4.5124235	-175381.4	-201735.45	241360.44	4.353916e6
H	1.0	22.6053	11.443681	2.379959	45746.418	153118.11	-21499.252	4.426474e6
He	1.0	2.0246713	6.1483054	23.483507	201122.88	-336400.28	-552547.3	4.4151555e6
H	1.0	18.260933	11.8526325	21.115479	-114559.99	-374403.1	49884.742	4.3480985e6
H	1.0	7.37566	4.837763	15.535154	162390.11	-306746.16	339735.4	4.3824885e6
He	1.0	20.199804	20.057125	12.213103	12631.57	-213818.95	212298.52	4.346678e6
H	1.0	17.88417	16.769705	18.661211	4728.4004	356703.47	-123028.24	4.3910515e6
H	1.0	19.323496	3.4526165	21.26996	-213969.25	-364500.44	-385695.6	4.324477e6
H	1.0	11.865767	14.330552	2.5845828	-442837.84	-414344.9	621560.8	4.3534485e6
He	1.0	23.557285	13.87189	13.947827	-279832.97	94515.31	-267393.12	4.3531965e6
He	1.0	21.345325	6.671625	23.57528	397233.25	216753.33	369418.5	4.4094975e6
He	1.0	13.525339	1.8517939	10.141624	-319016.72	-79171.49	-495384.34	4.40237e6
He	1.0	13.259329	21.544807	15.120999	-192052.48	233696.75	-34055.477	4.3501455e6
He	1.0	12.613864	17.602045	15.915606	-205409.9	168454.17	334697.03	4.356021e6
He	1.0	3.56902	1.498806	9.706919	-50854.42	418308.4	-30429.934	4.383793e6
H	1.0	12.870557	1.1560259	8.343751	-15895.325	-141481.98	-406197.47	4.353699e6
He	1.0	14.801865	12.428768	18.474802	-345114.3	-40896.883	-369701.72	4.390747e6
H	1.0	14.402468	2.4191804	17.051012	-177171.08	-77425.66	148673.12	4.3776355e6
He	1.0	21.296427	0.7070338	21.07753	653260.9	-152196.12	224682.86	4.4018665e6
He	1.0	23.06793	22.98595	17.330294	186416.77	51315.316	369124.56	4.361391e6
H	1.0	11.153063	13.224022	17.229723	-76194.81	428377.25	295509.16	4.3384985e6
H	1.0	6.4083786	17.380816	20.613325	-34004.848	-334005.88	71039.99	4.3654915e6
H	1.0	14.147721	15.086795	11.549947	214284.86	541255.3	491114.8	4.375107e6
He	1.0	22.561234	10.644216	14.756837	654362.3	15926.164	-328729.94	4.4224275e6
He	1.0	21.412823	22.08448	24.0793	419395.44	-365769.9	471998.1	4.401968e6
H	1.0	19.56037	2.4907286	8.6862545	-48560.49	313785.88	-241382.81	4.4049005e6
He	1.0	15.181159	16.589344	10.479305	5048.75	-242859.36	-153489.3	4.392162e6
H	1.0	10.815902	23.207884	15.495567	-827739.4	425051.5	333581.72	4.3787555e6
He	1.0	2.4597366	8.473773	1.5187213	-445424.9	310354.6	98052.07	4.328055e6
H	1.0	9.366862	13.159495	15.856019	94477.49	-562752.4	117253.08	4.3678875e6
H	1.0	17.642237	4.8688774	1.8642122	-68880.88	-425819.62	-154452.42	4.3705755e6
H	1.0	6.707452	14.64513	5.790913	232631.12	78596.61	462775.0	4.345781e6
H	1.0	11.231408	3.7972176	7.7834263	675459.9	-22856.955	134952.7	4.4339275e6
He	1.0	18.86044	20.560804	9.702128	-190621.14	-469920.22	-386584.4	4.353945e6
He	1.0	22.719564	12.428798	18.318777	434335.4	-374096.12	-283808.53	4.445149e6
He	1.0	15.022651	5.249029	14.462316	189839.78	-623367.75	11182.272	4.3868415e6
H	1.0	18.445402	8.607276	13.514557	516105.53	-42107.258	-293909.22	4.458426e6
He	1.0	13.470344	19.868902	22.95902	166613.6	-53433.5	286260.34	4.4059515e6
He	1.0	15.875547	10.228291	7.4183183	-309593.72	-290311.47	310311.84	4.377222e6
He	1.0	19.464079	15.902585	7.8341937	422355.03	-605053.2	-236395.31	4.377105e6
H	1.0	15.248002	10.927026	14.360715	-257503.22	158469.89	-647.981	4.40969e6
He	1.0	20.925358	19.374176	20.343735	123899.43	372748.53	-422558.28	4.39212e6
H	1.0	24.050632	12.969834	6.4404635	-243352.31	183542.55	327344.25	4.393995e6
H	1.0	21.76392	17.548811	9.398869	119225.46	-58290.07	-67964.734	4.413274e6
H	1.0	22.023111	22.223553	6.2418065	294131.25	-156766.64	36021.285	4.3348745e6
He	1.0	8.227337	21.32431	0.20458655	139365.28	254836.02	-244409.88	4.3950195e6
H	1.0	16.108955	22.72734	2.9061153	-263423.84	-345648.56	19274.203	4.38257e6
H	1.0	20.439056	8.475059	14.283445	-352461.5	-228910.02	-537376.5	4.4160455e6
He	1.0	22.00952	15.939867	10.461068	-287743.56	247136.73	-79215.7	4.3884115e6
H	1.0	22.849142	20.208603	4.8276296	-176250.16	23667.95	-14469.01	4.420438e6
He	1.0	2.7163942	8.066713	23.27157	-37473.39	323523.97	-72494.66	4.3979115e6
He	1.0	20.586891	16.00966	23.517244	81535.27	413251.4	63264.926	4.340223e6
H	1.0	8.236326	18.000446	21.636305	372818.47	109208.55	267795.1	4.324132e6
He	1.0	18.583546	2.6850967	17.11327	110812.38	221295.62	183511.95	4.3380055e6
H	1.0	5.008787	17.08695	18.721918	296789.1	-4941.0527	-252394.31	4.381667e6
H	1.0	23.90116	22.781168	21.774717	304875.44	192688.12	119626.9	4.321412e6
H	1.0	12.689762	7.8756313	9.567686	369360.75	4989.8022	-143549.14	4.401664e6
H	1.0	16.483727	13.799912	5.134395	101199.32	-402145.97	57038.523	4.348016e6
H	1.0	5.3273516	10.853389	2.0534003	-580850.3	30070.098	53432.227	4.3818855e6
He	1.0	12.771755	6.2335014	22.932041	-139864.58	-402578.0	263107.22	4.383652e6
He	1.0	18.344852	19.386185	14.500981	157393.06	-133912.33	73112.195	4.4017245e6
H	1.0	0.72702163	10.632067	5.2775216	-525970.7	-291725.22	-66680.95	4.3592375e6
He	1.0	20.77736	2.1742544	14.139476	347958.9	-114988.266	460969.62	4.4069855e6
He	1.0	1.3472269	13.704461	11.194647	-499924.7	-382266.75	-231345.36	4.3857085e6
H	1.0	19.154238	14.233418	22.119576	-6248.3555	283018.62	-348758.8	4.341588e6
H	1.0	8.65098	3.2636898	2.8722172	26676.88	-706132.1	-297245.06	4.417667e6
H	1.0	1.9026489	5.190554	10.778984	2128.6577	-569042.4	376920.44	4.4376455e6
H	1.0	20.99017	15.113218	21.693289	-108740.66	-184170.44	-367939.5	4.3867925e6
H	1.0	11.438173	23.755728	18.240519	593826.0	-262235.78	-458359.4	4.395376e6
He	1.0	10.979458	17.46021	13.179559	125877.28	-216397.86	70910.01	4.379949e6
He	1.0	8.061368	0.51267624	13.613867	-132269.89	51991.99	235890.48	4.351223e6
H	1.0	3.667308	16.181381	7.322781	484941.0	103726.555	448677.53	4.3394215e6
H	1.0	0.4920023	7.101779	5.163222	414429.8	632805.4	-139776.3	4.333198e6
He	1.0	22.856556	16.310047	2.3021038	340660.72	229175.45	195594.58	4.4376835e6
H	1.0	6.606481	13.112742	9.473386	197693.08	316316.53	-537140.1	4.387196e6
He	1.0	22.017273	10.208166	19.254059	594872.9	-352786.16	126743.05	4.3707915e6
H	1.0	19.645687	4.128152	7.1881886	254229.06	-431773.22	317392.2	4.3968185e6
H	1.0	14.406068	23.898731	23.028955	124551.66	-232213.84	613026.3	4.356291e6
H	1.0	13.9642105	20.293745	1.3303283	699858.44	382433.4	43983.72	4.381269e6
He	1.0	8.391894	21.038687	14.2431	-47668.023	-6237.219	-381478.78	4.438641e6
He	1.0	0.7365273	21.267805	16.896757	266441.56	131722.56	-409909.06	4.3424865e6
H	1.0	4.3913913	5.2615895	7.0640626	-238792.66	-59028.195	294833.38	4.362825e6
H	1.0	11.474275	14.465916	6.5316715	-9537.668	-381434.22	396000.88	4.4055525e6
He	1.0	18.489033	9.774241	20.552618	418252.84	-207317.11	-84266.2	4.42168e6
He	1.0	12.3347225	15.236298	21.389633	-142609.12	672039.4	-134570.78	4.3686705e6
H	1.0	23.589102	18.961662	22.974716	642650.6	-39532.426	494864.34	4.382765e6
He	1.0	10.450833	4.1470957	15.5214615	447651.28	209060.83	552044.7	4.39357e6
H	1.0	19.450836	12.748033	15.6726055	-15060.117	90888.15	37296.07	4.3856855e6
H	1.0	2.0677104	20.234846	5.7537303	410707.44	-25867.365	-108872.71	4.3603955e6
H	1.0	6.6271	16.8641	24.063444	276620.3	96340.64	154461.03	4.3822775e6
He	1.0	12.893808	10.10948	16.441715	7436.1567	266811.75	325857.66	4.3886275e6
H	1.0	6.9143376	17.111147	15.145845	266067.72	-33807.188	-137326.45	4.38246e6
H	1.0	0.16657123	15.730723	5.8860927	98316.56	-951.0408	-268479.5	4.4159455e6
H	1.0	15.137204	22.409466	0.13307428	729693.6	274336.78	255976.25	4.402451e6
He	1.0	0.69822484	18.801886	0.7130338	-32602.596	-346354.5	192043.62	4.3372305e6
H	1.0	23.262934	6.01983	4.099467	-185624.33	491160.88	-328380.97	4.339355e6
H	1.0	15.417694	2.9239154	23.537964	-238995.83	500536.44	-357153.6	4.3562465e6
H	1.0	22.829853	2.03419	19.093481	-61751.637	-167873.55	7674.587	4.3931795e6
H	1.0	18.922497	5.3659964	19.419746	-353673.62	-338104.56	214443.75	4.3456555e6
He	1.0	0.38849112	17.472933	5.0079613	41716.887	-363570.0	237927.67	4.331982e6
He	1.0	8.84209	5.5414844	1.3626138	-313246.6	-194194.31	-199437.89	4.362599e6
H	1.0	6.185461	23.638485	9.289706	-129797.68	44223.336	446509.16	4.3911945e6
He	1.0	23.936089	9.253291	15.212384	-364626.53	293088.12	-13812.049	4.410347e6
He	1.0	17.718166	11.181645	23.173279	65438.652	-323609.7	181555.86	4.3634725e6
He	1.0	12.482534	19.285648	19.702997	-574741.3	-19761.34	521290.2	4.403095e6
He	1.0	15.04952	3.939126	8.220334	198789.98	374872.94	-261908.42	4.441465e6
H	1.0	21.485472	0.6469035	5.541679	-390775.75	-126437.766	587066.1	4.376267e6
H	1.0	16.905136	9.621775	19.204777	-114842.28	349237.34	-92655.5	4.381026e6
H	1.0	12.535437	15.084247	9.889497	-655545.06	-473166.7	197432.92	4.39192e6
He	1.0	9.6133	20.98547	2.822117	612021.5	-181049.66	139897.22	4.3980035e6
He	1.0	8.503116	0.16700578	5.9336896	-585810.6	-246275.95	-56173.066	4.403135e6
H	1.0	6.10309	12.687669	4.699922	312841.06	-385094.88	139782.27	4.395288e6
He	1.0	14.191788	11.54591	11.489071	-290650.06	28010.043	351104.75	4.352847e6
He	1.0	3.4527745	22.985699	7.9493732	-240195.58	156009.81	49290.664	4.4183395e6
He	1.0	10.46755	11.544769	9.161838	8953.308	-12476.021	786329.1	4.322389e6
He	1.0	21.274868	5.119256	0.7138597	110234.02	-494063.7	-275657.62	4.4584805e6
H	1.0	0.87817705	11.664455	20.668282	506232.66	-450566.78	205165.45	4.3787695e6
He	1.0	9.596807	1.7813269	7.7357106	-332412.1	-166347.66	-414801.06	4.3360575e6
He	1.0	20.615856	10.175423	3.6942139	245630.36	-372600.84	-340141.97	4.358583e6
He	1.0	3.9534402	15.793213	9.973563	-680428.1	228385.25	443142.28	4.337347e6
He	1.0	7.7763305	16.359968	12.830808	-572736.2	-525904.9	183668.62	4.350899e6
H	1.0	23.516947	1.4683295	8.886257	-398687.75	-181886.47	300066.03	4.3931025e6
He	1.0	9.670817	6.4868736	19.314636	108532.875	220666.61	305069.62	4.361666e6
He	1.0	13.822017	18.365473	1.9450927	57369.305	-181879.22	629573.06	4.407485e6
H	1.0	10.161118	18.063925	2.2479494	-346561.75	-124578.58	-328042.66	4.400919e6
He	1.0	23.651205	20.146214	10.0446825	205876.05	-419165.66	-194091.2	4.380421e6
He	1.0	7.5446057	9.396535	4.4385557	178445.39	-168121.4	176902.36	4.3881295e6
He	1.0	20.518068	18.115139	17.245571	16453.783	7850.898	134399.44	4.4031585e6
H	1.0	15.133641	3.4837115	11.075434	334255.94	-404766.44	455652.38	4.3419175e6
H	1.0	3.8456943	13.741651	15.162823	-531402.25	-167208.67	-317936.16	4.4082365e6
H	1.0	18.562716	21.68613	11.875537	-534766.5	332318.3	-33356.832	4.4011935e6
H	1.0	2.0087123	16.29944	6.166863	291579.38	-464063.34	307683.97	4.3600385e6
He	1.0	5.158115	23.674229	12.281	-270345.0	237037.08	-50639.535	4.358469e6
H	1.0	10.4592705	23.115723	1.4483243	-180192.98	-314557.75	116608.84	4.3919605e6
He	1.0	2.185314	16.64145	9.230697	-234450.48	-235993.11	90435.33	4.4040095e6
He	1.0	21.13513	22.257406	17.055996	263257.88	-136121.83	-188824.42	4.41407e6
H	1.0	19.99576	22.698488	21.736555	94293.25	-442502.75	476624.3	4.3767455e6
He	1.0	13.640938	3.367994	15.454534	126501.58	252470.77	-551095.6	4.4043575e6
H	1.0	16.80576	8.000622	1.3258443	396820.5	187829.22	-62322.543	4.4462775e6
H	1.0	2.1060693	9.419407	6.2902174	182875.39	78419.29	436684.12	4.4078355e6
H	1.0	15.613011	21.741049	13.934181	167470.28	-42772.06	227873.7	4.3877795e6
H	1.0	10.627279	9.964021	13.753435	-917206.6	122685.4	-221197.95	4.450342e6
He	1.0	23.042734	11.60762	12.587469	-756838.5	481487.38	-197896.25	4.339875e6
H	1.0	8.670388	13.853689	9.924376	432050.6	-55351.223	-99555.23	4.3536935e6
H	1.0	3.6570377	1.2813559	0.99377954	-271485.78	-706891.9	-571747.25	4.3495855e6
He	1.0	23.587753	22.872694	13.198803	648714.6	-809454.7	189110.27	4.364049e6
He	1.0	19.214846	8.662247	18.253057	-42482.7	-224715.66	-528519.56	4.3626505e6
H	1.0	12.698838	23.464323	20.317066	-258636.84	263145.28	-240293.55	4.3984815e6
He	1.0	22.243292	2.147184	12.7369795	-317072.0	-136838.44	-212175.47	4.3543175e6
He	1.0	10.019694	9.106288	5.7043376	-294809.12	-143686.03	-433391.12	4.395649e6
He	1.0	1.2544051	0.6234229	9.264061	-385285.3	137019.55	467303.1	4.37004e6
H	1.0	15.343589	18.3059	3.5980666	264914.5	110996.57	-399145.5	4.345693e6
H	1.0	6.184741	15.836482	21.860907	-245325.17	1131.9922	-372061.97	4.392366e6
He	1.0	13.996595	0.17370059	16.923326	271085.72	-196569.2	-8490.276	4.3589705e6
He	1.0	10.46618	15.24763	8.679798	354890.2	32622.37	329656.16	4.3585715e6
He	1.0	5.476107	10.572122	9.859878	77778.46	353222.56	-511.74777	4.396495e6
He	1.0	4.826691	8.785556	17.357315	363317.84	313474.34	-220796.75	4.390495e6
H	1.0	13.476266	10.659082	20.029043	-623906.5	276383.3	217711.25	4.3898495e6
He	1.0	19.372711	8.318878	11.693011	93202.836	-32791.082	144934.69	4.3998995e6
H	1.0	4.2226787	16.237411	3.081315	-770680.9	-101800.82	-570937.25	4.4260345e6
He	1.0	17.879547	16.134142	11.82418	-12217.332	-57507.094	238885.6	4.3901325e6
H	1.0	15.165283	1.9673314	2.8722413	75097.74	-6455.667	-2062.9849	4.382676e6
H	1.0	9.35037	14.761084	13.143413	-250323.16	436538.06	-161973.44	4.3651355e6
He	1.0	22.326843	15.472436	12.580248	298690.5	-126804.42	567788.7	4.364123e6
He	1.0	2.9927638	8.655897	12.992378	211641.16	-177494.33	46588.598	4.408939e6
H	1.0	10.406579	19.57685	14.135033	-119753.17	524087.97	480880.7	4.3789925e6
He	1.0	16.637947	5.787956	18.059467	-107468.3	-477345.38	691831.1	4.4070395e6
H	1.0	3.8392048	7.229788	6.407364	-77022.914	-160164.16	430541.56	4.375585e6
H	1.0	22.707678	17.874342	3.9155235	-34001.117	-7000.2915	126612.44	4.3867165e6
H	1.0	15.613087	1.3717643	12.71811	-512061.22	-366400.2	-140422.6	4.3992745e6
He	1.0	7.9437804	6.650998	0.0016459376	143795.6	-2519.2456	-341276.8	4.2880125e6
H	1.0	11.457329	4.569813	5.895775	33993.766	200432.03	109409.26	4.3624045e6
H	1.0	18.479036	8.96723	16.271093	-354370.78	80099.055	101856.18	4.4077935e6
H	1.0	3.2778754	12.233165	8.839131	-290154.78	-286371.97	5846.26	4.3785155e6
H	1.0	23.525126	5.3743014	8.341043	253156.16	224789.36	95673.81	4.354456e6
H	1.0	6.642692	23.942867	6.3370337	-816922.9	239108.84	-138732.47	4.3662025e6
H	1.0	18.295704	1.7979342	4.578551	481058.25	120018.36	-311119.62	4.403427e6
H	1.0	2.7948947	10.2504015	15.020766	-143372.08	210033.53	179216.69	4.3512295e6
He	1.0	23.945713	1.9453074	0.25067624	-331044.6	275227.9	-189972.47	4.35436e6
He	1.0	11.822621	9.759817	18.468533	210614.28	413707.75	-470293.06	4.4308045e6
H	1.0	5.5858197	5.3991275	14.569546	-767371.7	304281.4	-56714.82	4.398195e6
H	1.0	0.38324013	7.105418	0.32581195	324050.7	126270.72	361302.6	4.407836e6
He	1.0	14.488572	8.049226	15.70167	-214570.36	195044.92	168681.6	4.430216e6
He	1.0	21.687391	20.531355	22.152727	240705.38	110620.016	412871.28	4.41239e6
He	1.0	21.833778	0.7507952	7.698592	220329.39	-71348.65	172931.31	4.296594e6
H	1.0	5.940131	5.2196007	10.929663	-92600.625	21209.387	471745.1	4.3539745e6
H	1.0	2.503684	18.502596	16.751726	425602.56	416636.62	685649.75	4.4043825e6
He	1.0	6.4288607	22.83018	19.533554	-237857.84	29894.021	383959.12	4.378848e6
H	1.0	19.687468	17.780039	13.377091	381911.72	-29638.318	-663660.75	4.4449085e6
He	1.0	0.8124163	4.284632	21.375914	-546773.7	-41934.195	-202391.84	4.407286e6
H	1.0	2.8755138	4.978443	21.105715	-293765.97	100975.91	80409.65	4.358989e6
H	1.0	8.209874	17.72664	1.8092234	5013.4824	340116.53	85145.914	4.3840095e6
He	1.0	16.075796	6.370804	5.215039	306426.3	-430551.66	-115890.805	4.36488e6
H	1.0	7.6142855	8.76755	14.208321	255750.0	-151897.61	-88635.21	4.359472e6
He	1.0	8.200439	3.3101315	7.9957867	-153427.44	333826.53	-49686.152	4.3277285e6
He	1.0	13.781473	14.14935	2.9689834	39253.11	-49852.305	-164083.73	4.396202e6
H	1.0	4.2799506	16.35221	16.029823	-519418.3	-127499.92	-298501.47	4.377987e6
He	1.0	23.17364	14.936908	23.163712	528658.06	-134719.27	375375.6	4.3526985e6
He	1.0	19.318502	19.176046	6.515469	-773895.9	450902.06	161919.66	4.3526985e6
H	1.0	7.27244	19.50973	23.034428	-139941.8	-78690.56	442436.97	4.415701e6
H	1.0	1.5539666	13.926302	20.46371	103661.914	-316261.0	-55173.15	4.4289215e6
He	1.0	6.6390862	0.13441458	23.424955	348934.03	-37021.727	93669.61	4.39223e6
He	1.0	20.933252	17.982742	3.1112645	-103930.94	-276487.16	-900864.6	4.391805e6
H	1.0	12.830002	7.677741	11.6148615	165568.67	-674820.7	-69584.92	4.441142e6
He	1.0	8.776394	5.522731	8.518072	40845.535	189350.75	553255.44	4.3828595e6
H	1.0	11.307615	4.0844173	17.696573	-362335.72	8270.987	-67717.56	4.3522865e6
He	1.0	16.761307	1.4393139	23.911396	-215423.83	154887.28	-254989.53	4.361328e6
He	1.0	16.883472	3.3208091	8.62985	224060.36	-95093.82	-25605.729	4.409268e6
He	1.0	3.9277556	19.479994	8.835513	-345366.6	184307.53	53087.316	4.4192605e6
H	1.0	11.317587	21.31627	12.231793	-24616.373	-89596.5	-241156.28	4.401455e6
H	1.0	1.4530445	13.616363	22.548315	-355305.16	60140.75	-247017.88	4.357328e6
He	1.0	7.4925523	9.242312	7.2534595	-170667.08	288673.53	-185515.33	4.3415715e6
He	1.0	18.783747	22.126852	4.292943	-108998.22	336910.0	-316016.2	4.4433645e6
He	1.0	2.3156703	21.658901	14.852178	487148.0	-22219.78	-21113.533	4.379868e6
He	1.0	19.622152	2.0218146	19.207123	-384107.84	-256656.38	221153.75	4.3833635e6
H	1.0	15.629193	6.033288	9.128137	447693.6	-355333.88	225385.55	4.3657845e6
H	1.0	17.712162	19.742144	17.025331	553858.56	198186.27	318719.84	4.3635135e6
H	1.0	6.5756793	14.686747	14.112546	-7704.3213	445989.7	-75580.2	4.3978975e6
H	1.0	0.43644342	8.956477	9.955397	-368602.12	-25901.41	-2590.0713	4.394823e6
He	1.0	10.329017	19.517138	17.473476	-615435.9	212536.62	-302264.4	4.3760925e6
H	1.0	21.404726	19.624393	0.55396837	300389.34	197576.28	338248.1	4.384004e6
He	1.0	17.53451	13.5865965	1.4874138	446291.28	-103226.96	314035.9	4.400892e6
H	1.0	23.43769	4.334283	2.4995615	-78113.49	-493823.66	466586.94	4.3862975e6
H	1.0	5.631318	23.014061	14.446078	-298854.0	348236.12	-411508.56	4.3524105e6
He	1.0	3.5339181	23.1573	9.849996	-345025.03	-374263.03	38328.25	4.410389e6
H	1.0	21.51551	10.153073	21.87337	-47824.285	-337087.0	532762.06	4.363326e6
He	1.0	15.559909	20.005499	9.721892	180802.7	-185653.53	2327.5598	4.3732905e6
He	1.0	8.776839	16.749743	19.80525	-808788.06	-297483.78	333055.28	4.3958595e6
H	1.0	12.706119	19.710516	8.098151	-73115.305	80561.4	208905.97	4.327644e6
He	1.0	12.899018	18.938015	4.423408	570887.0	301727.1	293374.38	4.3924945e6
H	1.0	20.629171	1.5787606	16.3607	-159569.3	-12566.287	133271.38	4.38275e6
H	1.0	16.631897	9.977345	12.719972	413115.84	-185791.55	67411.09	4.3476705e6
He	1.0	3.9830463	10.371723	23.49978	235865.56	-338005.2	-238696.75	4.403277e6
He	1.0	19.150126	1.5632358	10.516657	-61049.434	21008.068	-191768.53	4.4015125e6
He	1.0	7.599195	9.48872	22.010954	126375.484	39466.637	122097.33	4.3888915e6
H	1.0	1.8746489	15.746156	11.0034075	31910.305	-162918.56	-232817.5	4.324421e6
H	1.0	6.232864	10.876718	6.1990724	197936.48	-158106.2	-283070.6	4.339842e6
H	1.0	19.042606	14.8401165	10.430358	-158804.45	-169134.78	517208.16	4.408657e6
He	1.0	1.2479577	3.0644965	7.577627	-644290.5	-182250.83	-291002.0	4.341828e6
He	1.0	0.43680692	7.6135283	11.902746	-125803.65	-318483.88	484040.53	4.3641725e6
H	1.0	2.428285	12.63497	17.13854	-284053.97	-171867.14	-350364.78	4.345104e6
He	1.0	11.644806	16.830278	4.166576	-93004.664	669718.25	312038.34	4.3791225e6
He	1.0	12.508909	17.44263	7.966355	-444856.8	382212.25	-223641.97	4.397275e6
He	1.0	18.093458	4.9242015	22.433647	-354864.38	382908.88	558597.7	4.343629e6
He	1.0	7.410946	7.8434124	12.325158	-107083.17	-156485.17	513093.2	4.348494e6
H	1.0	22.195028	1.1452051	23.968842	-154730.42	-454112.53	775924.94	4.355267e6
H	1.0	11.624983	1.0370276	2.8698912	114004.0	137540.64	-176086.86	4.3683065e6
He	1.0	13.509519	20.869581	6.4517083	-214397.97	106311.28	155503.31	4.3709355e6
H	1.0	0.23337759	8.399773	19.293543	-554891.3	646652.0	234874.08	4.422224e6
H	1.0	4.3287454	6.6002398	0.9110254	-23462.373	47040.117	74766.4	4.330185e6
H	1.0	0.5825645	15.26261	13.015691	-568343.75	114569.58	76193.74	4.429308e6
He	1.0	10.681804	5.789442	21.229681	22912.205	-607041.56	-88763.91	4.453481e6
H	1.0	18.712223	10.793572	5.5687456	-136640.4	57272.293	-293363.25	4.4117415e6
He	1.0	22.369963	6.3962607	13.426413	-456393.53	-220343.48	-603480.9	4.408726e6
He	1.0	21.59969	21.525791	2.7590337	167862.11	266230.6	37959.45	4.38968e6
H	1.0	12.184377	14.118476	12.4960785	-139213.1	-217904.1	-474267.22	4.3987295e6
He	1.0	8.860959	8.177111	15.588506	-841059.8	186501.06	226062.03	4.420344e6
He	1.0	7.649755	4.793258	20.688192	828765.2	377302.8	373768.1	4.403867e6
H	1.0	9.359067	23.641115	23.93712	-388054.25	231025.52	104433.586	4.304954e6
He	1.0	19.241951	11.438384	3.132353	272413.25	170169.89	76957.266	4.4269795e6
He	1.0	2.1967084	2.397319	5.796802	-319028.38	-268679.62	78736.69	4.3846475e6
He	1.0	21.010126	13.206568	7.076971	48804.324	-2529.5735	20316.557	4.4245995e6
H	1.0	18.906189	10.513957	12.450661	-263796.25	-399759.66	257170.25	4.3709305e6
H	1.0	16.101477	22.964622	21.304266	288209.06	80358.08	186568.34	4.373241e6
He	1.0	21.41656	0.32627574	13.603564	83194.73	446270.72	193118.6	4.409816e6
H	1.0	21.013908	11.144466	13.229027	-120082.32	-29591.812	197569.92	4.4087275e6
He	1.0	20.774145	21.900991	12.687	-179782.56	-126826.73	39771.613	4.335144e6
H	1.0	6.5860147	7.990494	22.856318	-417421.0	138296.38	-47914.145	4.408775e6
